\* NoName *\
Minimize
OBJ: cost_0000 + cost_0001 + cost_0002 + cost_0003 + cost_0004 + cost_0005
 + cost_0006 + cost_0007 + cost_0008 + cost_0009 + cost_0010 + cost_0011
 + cost_0012 + cost_0013 + cost_0014 + cost_0015 + cost_0016 + cost_0017
 + cost_0018 + cost_0019 + cost_0020 + cost_0021 + cost_0022 + cost_0023
 + cost_0024 + cost_0025 + cost_0026 + cost_0027 + cost_0028 + cost_0029
 + cost_0030 + cost_0031 + cost_0032 + cost_0033 + cost_0034 + cost_0035
 + cost_0036 + cost_0037 + cost_0038 + cost_0039 + cost_0040 + cost_0041
 + cost_0042 + cost_0043 + cost_0044 + cost_0045 + cost_0046 + cost_0047
 + cost_0048 + cost_0049 + cost_0050 + cost_0051 + cost_0052 + cost_0053
 + cost_0054 + cost_0055 + cost_0056 + cost_0057 + cost_0058 + cost_0059
 + cost_0060 + cost_0061 + cost_0062 + cost_0063 + cost_0064 + cost_0065
 + cost_0066 + cost_0067 + cost_0068 + cost_0069 + cost_0070 + cost_0071
 + cost_0072 + cost_0073 + cost_0074 + cost_0075 + cost_0076 + cost_0077
 + cost_0078 + cost_0079 + cost_0080 + cost_0081 + cost_0082 + cost_0083
 + cost_0084 + cost_0085 + cost_0086 + cost_0087 + cost_0088 + cost_0089
 + cost_0090 + cost_0091 + cost_0092 + cost_0093 + cost_0094 + cost_0095
 + cost_0096 + cost_0097 + omg_0000 + omg_0001 + omg_0002 + omg_0003
 + omg_0004 + omg_0005 + omg_0006 + omg_0007 + omg_0008 + omg_0009 + omg_0010
 + omg_0011 + omg_0012 + omg_0013 + omg_0014 + omg_0015 + omg_0016 + omg_0017
 + omg_0018 + omg_0019 + omg_0020 + omg_0021 + omg_0022 + omg_0023 + omg_0024
 + omg_0025 + omg_0026 + omg_0027 + omg_0028 + omg_0029 + omg_0030 + omg_0031
 + omg_0032 + omg_0033 + omg_0034 + omg_0035 + omg_0036 + omg_0037 + omg_0038
 + omg_0039 + omg_0040 + omg_0041 + omg_0042 + omg_0043 + omg_0044 + omg_0045
 + omg_0046 + omg_0047 + omg_0048 + omg_0049 + omg_0050 + omg_0051 + omg_0052
 + omg_0053 + omg_0054 + omg_0055 + omg_0056 + omg_0057 + omg_0058 + omg_0059
 + omg_0060 + omg_0061 + omg_0062 + omg_0063 + omg_0064 + omg_0065 + omg_0066
 + omg_0067 + omg_0068 + omg_0069 + omg_0070 + omg_0071 + omg_0072 + omg_0073
 + omg_0074 + omg_0075 + omg_0076 + omg_0077 + omg_0078 + omg_0079 + omg_0080
 + omg_0081 + omg_0082 + omg_0083 + omg_0084 + omg_0085 + omg_0086 + omg_0087
 + omg_0088 + omg_0089 + omg_0090 + omg_0091 + omg_0092 + omg_0093 + omg_0094
 + omg_0095 + omg_0096 + omg_0097
Subject To
C_0000_cost_0001: cost_0000 - 0.0124000182326 pi_0001_0000
 - 0.00617282715365 pi_0001_0001 >= 0
C_0000_cost_0002: cost_0000 - 0.00327173222233 pi_0002_0000
 - 0.00314508226115 pi_0002_0001 - 0.0030184975759 pi_0002_0002
 - 0.00289197814812 pi_0002_0003 - 0.00276552395939 pi_0002_0004
 - 0.00263913499125 pi_0002_0005 - 0.00251281122529 pi_0002_0006
 - 0.00238655264307 pi_0002_0007 - 0.00226035922616 pi_0002_0008
 - 0.00213423095614 pi_0002_0009 - 0.00200816781459 pi_0002_0010
 - 0.00188216978309 pi_0002_0011 - 0.00175623684322 pi_0002_0012
 - 0.00163036897657 pi_0002_0013 - 0.00150456616474 pi_0002_0014
 - 0.0013788283893 pi_0002_0015 - 0.00125315563187 pi_0002_0016
 - 0.00112754787403 pi_0002_0017 - 0.00100200509738 pi_0002_0018
 - 0.000876527283529 pi_0002_0019 - 0.000751114414081 pi_0002_0020
 - 0.000625766470642 pi_0002_0021 - 0.000500483434822 pi_0002_0022
 - 0.000375265288232 pi_0002_0023 - 0.000250112012487 pi_0002_0024
 - 0.000125023589204 pi_0002_0025 >= 0
C_0000_cost_0003: cost_0000 >= 0
C_0000_cost_0004: cost_0000 >= 0
C_0000_cost_0005: cost_0000 >= 0
C_0000_cost_0006: cost_0000 >= 0
C_0000_cost_0007: cost_0000 >= 0
C_0000_cost_0008: cost_0000 >= 0
C_0000_cost_0009: cost_0000 >= 0
C_0000_cost_0010: cost_0000 >= 0
C_0000_cost_0011: cost_0000 >= 0
C_0000_cost_0012: cost_0000 >= 0
C_0000_cost_0013: cost_0000 >= 0
C_0000_cost_0014: cost_0000 >= 0
C_0000_cost_0015: cost_0000 >= 0
C_0000_cost_0016: cost_0000 >= 0
C_0000_cost_0017: cost_0000 >= 0
C_0000_cost_0018: cost_0000 >= 0
C_0000_cost_0019: cost_0000 >= 0
C_0000_cost_0020: cost_0000 >= 0
C_0000_cost_0021: cost_0000 >= 0
C_0000_cost_0022: cost_0000 >= 0
C_0000_cost_0023: cost_0000 >= 0
C_0000_cost_0024: cost_0000 >= 0
C_0000_cost_0025: cost_0000 >= 0
C_0000_cost_0026: cost_0000 - 0.0106666652041 pi_0026_0000 >= 0
C_0000_cost_0027: cost_0000 >= 0
C_0000_cost_0028: cost_0000 >= 0
C_0000_cost_0029: cost_0000 - 0.426666385001 pi_0029_0000 >= 0
C_0000_cost_0030: cost_0000 >= 0
C_0000_cost_0031: cost_0000 >= 0
C_0000_cost_0032: cost_0000 >= 0
C_0000_cost_0033: cost_0000 >= 0
C_0000_cost_0034: cost_0000 >= 0
C_0000_cost_0035: cost_0000 >= 0
C_0000_cost_0036: cost_0000 >= 0
C_0000_linear_0000: - act_0000 + xi_0000_0000 = 27
C_0000_linear_0001: - act_0001 + xi_0000_0001 = 48
C_0000_linear_0002: - act_0002 + xi_0000_0002 = 3609
C_0000_linear_0003: - act_0003 + xi_0000_0003 = 1
C_0000_linear_0004: - act_0004 + xi_0000_0004 = 1
C_0000_linear_0005: - act_0005 + xi_0000_0005 = 1
C_0000_linear_0006: - act_0006 + xi_0000_0006 = 0
C_0000_linear_0007: - act_0007 + xi_0000_0007 = 0
C_0000_linear_0008: - act_0008 + xi_0000_0008 = 1
C_0000_linear_0009: - act_0009 + xi_0000_0009 = 1
C_0000_linear_0010: - act_0010 + xi_0000_0010 = 0
C_0000_linear_0011: - act_0011 + xi_0000_0011 = 0
C_0000_linear_0012: - act_0012 + xi_0000_0012 = 0
C_0000_linear_0013: - act_0013 + xi_0000_0013 = 0
C_0000_linear_0014: - act_0014 + xi_0000_0014 = 1
C_0000_linear_0015: - act_0015 + xi_0000_0015 = 0
C_0000_linear_0016: - act_0016 + xi_0000_0016 = 0
C_0000_linear_0017: - act_0017 + xi_0000_0017 = 1
C_0000_linear_0018: - act_0018 + xi_0000_0018 = 1
C_0000_linear_0019: - act_0019 + xi_0000_0019 = 0
C_0000_linear_0020: - act_0020 + xi_0000_0020 = 0
C_0000_linear_0021: - act_0021 + xi_0000_0021 = 0
C_0000_linear_0022: - act_0022 + xi_0000_0022 = 0
C_0000_linear_0023: - act_0023 + xi_0000_0023 = 0
C_0000_linear_0024: - act_0024 + xi_0000_0024 = 0
C_0000_linear_0025: - act_0025 + xi_0000_0025 = 0
C_0000_linear_0026: - act_0026 + xi_0000_0026 = 0
C_0000_linear_0027: - act_0027 + xi_0000_0027 = 0
C_0000_linear_0028: - act_0028 + xi_0000_0028 = 0
C_0000_linear_0029: - act_0029 + xi_0000_0029 = 0
C_0000_linear_0030: - act_0030 + xi_0000_0030 = 1
C_0000_linear_0031: - act_0031 + xi_0000_0031 = 1
C_0000_linear_0032: - act_0032 + xi_0000_0032 = 0
C_0000_linear_0033: - act_0033 + xi_0000_0033 = 0
C_0000_linear_0034: - act_0034 + xi_0000_0034 = 1
C_0000_linear_0035: - act_0035 + xi_0000_0035 = 0
C_0000_linear_0036: - act_0036 + xi_0000_0036 = 0
C_0000_linear_0037: - act_0037 + xi_0000_0037 = 0
C_0000_linear_0038: - act_0038 + xi_0000_0038 = 0
C_0000_linear_0039: - act_0039 + xi_0000_0039 = 0
C_0000_loss_ge: - 10000 omg_0000 - 0.0111828930987 xi_0000_0000
 + 0.0316585861132 xi_0000_0001 + 0.000106039552982 xi_0000_0002
 + 0.2872356913 xi_0000_0003 + 0.013030358965 xi_0000_0004
 + 0.240120705533 xi_0000_0005 + 0.442580447937 xi_0000_0006
 - 0.375980671537 xi_0000_0007 + 0.392374151169 xi_0000_0008
 + 1.06701819784 xi_0000_0009 - 0.942756746323 xi_0000_0010
 + 0.412027349402 xi_0000_0011 + 0.570359951286 xi_0000_0012
 - 0.852905494999 xi_0000_0013 - 0.323418189169 xi_0000_0014
 + 0.252938924417 xi_0000_0015 - 0.0388599557068 xi_0000_0016
 - 0.020417849004 xi_0000_0017 - 0.119001175529 xi_0000_0018
 + 0.47399163059 xi_0000_0019 - 0.445604107063 xi_0000_0020
 - 0.0184582213876 xi_0000_0021 + 0.307589905785 xi_0000_0022
 + 0.444474821864 xi_0000_0023 - 0.187382383206 xi_0000_0024
 + 0.383302875585 xi_0000_0025 - 0.750161596334 xi_0000_0026
 - 1.33170117681 xi_0000_0027 + 0.0190658885385 xi_0000_0028
 - 0.745784276999 xi_0000_0029 - 0.516231038044 xi_0000_0030
 - 0.409255825925 xi_0000_0031 - 0.0994375517393 xi_0000_0032
 - 0.734256048841 xi_0000_0033 - 0.253933375138 xi_0000_0034
 - 0.256674950149 xi_0000_0035 - 0.732341101218 xi_0000_0036
 - 0.86707443001 xi_0000_0037 - 0.319117177314 xi_0000_0038
 + 0.0697086420108 xi_0000_0039 >= -9998.75705057
C_0000_loss_le: - 10000 omg_0000 - 0.0111828930987 xi_0000_0000
 + 0.0316585861132 xi_0000_0001 + 0.000106039552982 xi_0000_0002
 + 0.2872356913 xi_0000_0003 + 0.013030358965 xi_0000_0004
 + 0.240120705533 xi_0000_0005 + 0.442580447937 xi_0000_0006
 - 0.375980671537 xi_0000_0007 + 0.392374151169 xi_0000_0008
 + 1.06701819784 xi_0000_0009 - 0.942756746323 xi_0000_0010
 + 0.412027349402 xi_0000_0011 + 0.570359951286 xi_0000_0012
 - 0.852905494999 xi_0000_0013 - 0.323418189169 xi_0000_0014
 + 0.252938924417 xi_0000_0015 - 0.0388599557068 xi_0000_0016
 - 0.020417849004 xi_0000_0017 - 0.119001175529 xi_0000_0018
 + 0.47399163059 xi_0000_0019 - 0.445604107063 xi_0000_0020
 - 0.0184582213876 xi_0000_0021 + 0.307589905785 xi_0000_0022
 + 0.444474821864 xi_0000_0023 - 0.187382383206 xi_0000_0024
 + 0.383302875585 xi_0000_0025 - 0.750161596334 xi_0000_0026
 - 1.33170117681 xi_0000_0027 + 0.0190658885385 xi_0000_0028
 - 0.745784276999 xi_0000_0029 - 0.516231038044 xi_0000_0030
 - 0.409255825925 xi_0000_0031 - 0.0994375517393 xi_0000_0032
 - 0.734256048841 xi_0000_0033 - 0.253933375138 xi_0000_0034
 - 0.256674950149 xi_0000_0035 - 0.732341101218 xi_0000_0036
 - 0.86707443001 xi_0000_0037 - 0.319117177314 xi_0000_0038
 + 0.0697086420108 xi_0000_0039 <= 1.24294941651
C_0001_cost_0001: cost_0001 - 0.0246929068628 pi_0001_0000
 - 0.0123216428276 pi_0001_0001 >= 0
C_0001_cost_0002: cost_0001 - 9.87753893463e-05 pi_0002_0000
 - 9.4950392303e-05 pi_0002_0001 - 9.11274504987e-05 pi_0002_0002
 - 8.73065664752e-05 pi_0002_0003 - 8.34877427721e-05 pi_0002_0004
 - 7.9670981928e-05 pi_0002_0005 - 7.58562864789e-05 pi_0002_0006
 - 7.20436589595e-05 pi_0002_0007 - 6.82331019027e-05 pi_0002_0008
 - 6.44246178394e-05 pi_0002_0009 - 6.06182092985e-05 pi_0002_0010
 - 5.68138788073e-05 pi_0002_0011 - 5.3011628891e-05 pi_0002_0012
 - 4.92114620732e-05 pi_0002_0013 - 4.54133808752e-05 pi_0002_0014
 - 4.16173878167e-05 pi_0002_0015 - 3.78234854154e-05 pi_0002_0016
 - 3.40316761869e-05 pi_0002_0017 - 3.02419626449e-05 pi_0002_0018
 - 2.64543473011e-05 pi_0002_0019 - 2.2668832665e-05 pi_0002_0020
 - 1.88854212446e-05 pi_0002_0021 - 1.51041155454e-05 pi_0002_0022
 - 1.13249180709e-05 pi_0002_0023 - 7.54783132262e-06 pi_0002_0024
 - 3.77285779984e-06 pi_0002_0025 >= 0
C_0001_cost_0003: cost_0001 >= 0
C_0001_cost_0004: cost_0001 >= 0
C_0001_cost_0005: cost_0001 >= 0
C_0001_cost_0006: cost_0001 >= 0
C_0001_cost_0007: cost_0001 >= 0
C_0001_cost_0008: cost_0001 >= 0
C_0001_cost_0009: cost_0001 >= 0
C_0001_cost_0010: cost_0001 >= 0
C_0001_cost_0011: cost_0001 >= 0
C_0001_cost_0012: cost_0001 >= 0
C_0001_cost_0013: cost_0001 >= 0
C_0001_cost_0014: cost_0001 >= 0
C_0001_cost_0015: cost_0001 >= 0
C_0001_cost_0016: cost_0001 >= 0
C_0001_cost_0017: cost_0001 >= 0
C_0001_cost_0018: cost_0001 >= 0
C_0001_cost_0019: cost_0001 >= 0
C_0001_cost_0020: cost_0001 >= 0
C_0001_cost_0021: cost_0001 >= 0
C_0001_cost_0022: cost_0001 >= 0
C_0001_cost_0023: cost_0001 >= 0
C_0001_cost_0024: cost_0001 >= 0
C_0001_cost_0025: cost_0001 >= 0
C_0001_cost_0026: cost_0001 - 0.0106666652041 pi_0026_0000 >= 0
C_0001_cost_0027: cost_0001 >= 0
C_0001_cost_0028: cost_0001 >= 0
C_0001_cost_0029: cost_0001 - 0.426666385001 pi_0029_0000 >= 0
C_0001_cost_0030: cost_0001 >= 0
C_0001_cost_0031: cost_0001 >= 0
C_0001_cost_0032: cost_0001 >= 0
C_0001_cost_0033: cost_0001 >= 0
C_0001_cost_0034: cost_0001 >= 0
C_0001_cost_0035: cost_0001 >= 0
C_0001_cost_0036: cost_0001 >= 0
C_0001_linear_0000: - act_0000 + xi_0001_0000 = 43
C_0001_linear_0001: - act_0001 + xi_0001_0001 = 36
C_0001_linear_0002: - act_0002 + xi_0001_0002 = 15857
C_0001_linear_0003: - act_0003 + xi_0001_0003 = 2
C_0001_linear_0004: - act_0004 + xi_0001_0004 = 3
C_0001_linear_0005: - act_0005 + xi_0001_0005 = 1
C_0001_linear_0006: - act_0006 + xi_0001_0006 = 0
C_0001_linear_0007: - act_0007 + xi_0001_0007 = 0
C_0001_linear_0008: - act_0008 + xi_0001_0008 = 1
C_0001_linear_0009: - act_0009 + xi_0001_0009 = 0
C_0001_linear_0010: - act_0010 + xi_0001_0010 = 0
C_0001_linear_0011: - act_0011 + xi_0001_0011 = 0
C_0001_linear_0012: - act_0012 + xi_0001_0012 = 1
C_0001_linear_0013: - act_0013 + xi_0001_0013 = 0
C_0001_linear_0014: - act_0014 + xi_0001_0014 = 1
C_0001_linear_0015: - act_0015 + xi_0001_0015 = 0
C_0001_linear_0016: - act_0016 + xi_0001_0016 = 1
C_0001_linear_0017: - act_0017 + xi_0001_0017 = 1
C_0001_linear_0018: - act_0018 + xi_0001_0018 = 0
C_0001_linear_0019: - act_0019 + xi_0001_0019 = 0
C_0001_linear_0020: - act_0020 + xi_0001_0020 = 0
C_0001_linear_0021: - act_0021 + xi_0001_0021 = 0
C_0001_linear_0022: - act_0022 + xi_0001_0022 = 0
C_0001_linear_0023: - act_0023 + xi_0001_0023 = 0
C_0001_linear_0024: - act_0024 + xi_0001_0024 = 1
C_0001_linear_0025: - act_0025 + xi_0001_0025 = 0
C_0001_linear_0026: - act_0026 + xi_0001_0026 = 0
C_0001_linear_0027: - act_0027 + xi_0001_0027 = 0
C_0001_linear_0028: - act_0028 + xi_0001_0028 = 0
C_0001_linear_0029: - act_0029 + xi_0001_0029 = 0
C_0001_linear_0030: - act_0030 + xi_0001_0030 = 1
C_0001_linear_0031: - act_0031 + xi_0001_0031 = 1
C_0001_linear_0032: - act_0032 + xi_0001_0032 = 0
C_0001_linear_0033: - act_0033 + xi_0001_0033 = 0
C_0001_linear_0034: - act_0034 + xi_0001_0034 = 1
C_0001_linear_0035: - act_0035 + xi_0001_0035 = 0
C_0001_linear_0036: - act_0036 + xi_0001_0036 = 0
C_0001_linear_0037: - act_0037 + xi_0001_0037 = 0
C_0001_linear_0038: - act_0038 + xi_0001_0038 = 0
C_0001_linear_0039: - act_0039 + xi_0001_0039 = 1
C_0001_loss_ge: - 10000 omg_0001 - 0.0111828930987 xi_0001_0000
 + 0.0316585861132 xi_0001_0001 + 0.000106039552982 xi_0001_0002
 + 0.2872356913 xi_0001_0003 + 0.013030358965 xi_0001_0004
 + 0.240120705533 xi_0001_0005 + 0.442580447937 xi_0001_0006
 - 0.375980671537 xi_0001_0007 + 0.392374151169 xi_0001_0008
 + 1.06701819784 xi_0001_0009 - 0.942756746323 xi_0001_0010
 + 0.412027349402 xi_0001_0011 + 0.570359951286 xi_0001_0012
 - 0.852905494999 xi_0001_0013 - 0.323418189169 xi_0001_0014
 + 0.252938924417 xi_0001_0015 - 0.0388599557068 xi_0001_0016
 - 0.020417849004 xi_0001_0017 - 0.119001175529 xi_0001_0018
 + 0.47399163059 xi_0001_0019 - 0.445604107063 xi_0001_0020
 - 0.0184582213876 xi_0001_0021 + 0.307589905785 xi_0001_0022
 + 0.444474821864 xi_0001_0023 - 0.187382383206 xi_0001_0024
 + 0.383302875585 xi_0001_0025 - 0.750161596334 xi_0001_0026
 - 1.33170117681 xi_0001_0027 + 0.0190658885385 xi_0001_0028
 - 0.745784276999 xi_0001_0029 - 0.516231038044 xi_0001_0030
 - 0.409255825925 xi_0001_0031 - 0.0994375517393 xi_0001_0032
 - 0.734256048841 xi_0001_0033 - 0.253933375138 xi_0001_0034
 - 0.256674950149 xi_0001_0035 - 0.732341101218 xi_0001_0036
 - 0.86707443001 xi_0001_0037 - 0.319117177314 xi_0001_0038
 + 0.0697086420108 xi_0001_0039 >= -9998.75705057
C_0001_loss_le: - 10000 omg_0001 - 0.0111828930987 xi_0001_0000
 + 0.0316585861132 xi_0001_0001 + 0.000106039552982 xi_0001_0002
 + 0.2872356913 xi_0001_0003 + 0.013030358965 xi_0001_0004
 + 0.240120705533 xi_0001_0005 + 0.442580447937 xi_0001_0006
 - 0.375980671537 xi_0001_0007 + 0.392374151169 xi_0001_0008
 + 1.06701819784 xi_0001_0009 - 0.942756746323 xi_0001_0010
 + 0.412027349402 xi_0001_0011 + 0.570359951286 xi_0001_0012
 - 0.852905494999 xi_0001_0013 - 0.323418189169 xi_0001_0014
 + 0.252938924417 xi_0001_0015 - 0.0388599557068 xi_0001_0016
 - 0.020417849004 xi_0001_0017 - 0.119001175529 xi_0001_0018
 + 0.47399163059 xi_0001_0019 - 0.445604107063 xi_0001_0020
 - 0.0184582213876 xi_0001_0021 + 0.307589905785 xi_0001_0022
 + 0.444474821864 xi_0001_0023 - 0.187382383206 xi_0001_0024
 + 0.383302875585 xi_0001_0025 - 0.750161596334 xi_0001_0026
 - 1.33170117681 xi_0001_0027 + 0.0190658885385 xi_0001_0028
 - 0.745784276999 xi_0001_0029 - 0.516231038044 xi_0001_0030
 - 0.409255825925 xi_0001_0031 - 0.0994375517393 xi_0001_0032
 - 0.734256048841 xi_0001_0033 - 0.253933375138 xi_0001_0034
 - 0.256674950149 xi_0001_0035 - 0.732341101218 xi_0001_0036
 - 0.86707443001 xi_0001_0037 - 0.319117177314 xi_0001_0038
 + 0.0697086420108 xi_0001_0039 <= 1.24294941651
C_0002_cost_0001: cost_0002 - 0.0384268679769 pi_0001_0000
 - 0.0214900900505 pi_0001_0001 >= 0
C_0002_cost_0002: cost_0002 - 0.00367508523958 pi_0002_0000
 - 0.00353575326825 pi_0002_0001 - 0.00339626005117 pi_0002_0002
 - 0.00325660556756 pi_0002_0003 - 0.00311678979698 pi_0002_0004
 - 0.0029768127193 pi_0002_0005 - 0.00283667431474 pi_0002_0006
 - 0.00269637456382 pi_0002_0007 - 0.00255591344741 pi_0002_0008
 - 0.00241529094668 pi_0002_0009 - 0.00227450704317 pi_0002_0010
 - 0.00213356171871 pi_0002_0011 - 0.00199245495548 pi_0002_0012
 - 0.00185118673597 pi_0002_0013 - 0.00170975704302 pi_0002_0014
 - 0.00156816585979 pi_0002_0015 - 0.00142641316976 pi_0002_0016
 - 0.00128449895676 pi_0002_0017 - 0.00114242320494 pi_0002_0018
 - 0.00100018589878 pi_0002_0019 - 0.000857787023082 pi_0002_0020
 - 0.000715226563001 pi_0002_0021 - 0.000572504504007 pi_0002_0022
 - 0.000429620831905 pi_0002_0023 - 0.000286575532834 pi_0002_0024
 - 0.000143368593265 pi_0002_0025 >= 0
C_0002_cost_0003: cost_0002 >= 0
C_0002_cost_0004: cost_0002 >= 0
C_0002_cost_0005: cost_0002 >= 0
C_0002_cost_0006: cost_0002 >= 0
C_0002_cost_0007: cost_0002 >= 0
C_0002_cost_0008: cost_0002 >= 0
C_0002_cost_0009: cost_0002 >= 0
C_0002_cost_0010: cost_0002 >= 0
C_0002_cost_0011: cost_0002 >= 0
C_0002_cost_0012: cost_0002 >= 0
C_0002_cost_0013: cost_0002 >= 0
C_0002_cost_0014: cost_0002 >= 0
C_0002_cost_0015: cost_0002 >= 0
C_0002_cost_0016: cost_0002 >= 0
C_0002_cost_0017: cost_0002 >= 0
C_0002_cost_0018: cost_0002 >= 0
C_0002_cost_0019: cost_0002 >= 0
C_0002_cost_0020: cost_0002 >= 0
C_0002_cost_0021: cost_0002 >= 0
C_0002_cost_0022: cost_0002 >= 0
C_0002_cost_0023: cost_0002 >= 0
C_0002_cost_0024: cost_0002 >= 0
C_0002_cost_0025: cost_0002 >= 0
C_0002_cost_0026: cost_0002 - 0.0106666652041 pi_0026_0000 >= 0
C_0002_cost_0027: cost_0002 >= 0
C_0002_cost_0028: cost_0002 >= 0
C_0002_cost_0029: cost_0002 - 0.426666385001 pi_0029_0000 >= 0
C_0002_cost_0030: cost_0002 >= 0
C_0002_cost_0031: cost_0002 >= 0
C_0002_cost_0032: cost_0002 >= 0
C_0002_cost_0033: cost_0002 >= 0
C_0002_cost_0034: cost_0002 >= 0
C_0002_cost_0035: cost_0002 >= 0
C_0002_cost_0036: cost_0002 >= 0
C_0002_linear_0000: - act_0000 + xi_0002_0000 = 23
C_0002_linear_0001: - act_0001 + xi_0002_0001 = 6
C_0002_linear_0002: - act_0002 + xi_0002_0002 = 448
C_0002_linear_0003: - act_0003 + xi_0002_0003 = 4
C_0002_linear_0004: - act_0004 + xi_0002_0004 = 4
C_0002_linear_0005: - act_0005 + xi_0002_0005 = 1
C_0002_linear_0006: - act_0006 + xi_0002_0006 = 0
C_0002_linear_0007: - act_0007 + xi_0002_0007 = 0
C_0002_linear_0008: - act_0008 + xi_0002_0008 = 1
C_0002_linear_0009: - act_0009 + xi_0002_0009 = 0
C_0002_linear_0010: - act_0010 + xi_0002_0010 = 0
C_0002_linear_0011: - act_0011 + xi_0002_0011 = 0
C_0002_linear_0012: - act_0012 + xi_0002_0012 = 0
C_0002_linear_0013: - act_0013 + xi_0002_0013 = 0
C_0002_linear_0014: - act_0014 + xi_0002_0014 = 1
C_0002_linear_0015: - act_0015 + xi_0002_0015 = 0
C_0002_linear_0016: - act_0016 + xi_0002_0016 = 0
C_0002_linear_0017: - act_0017 + xi_0002_0017 = 1
C_0002_linear_0018: - act_0018 + xi_0002_0018 = 0
C_0002_linear_0019: - act_0019 + xi_0002_0019 = 1
C_0002_linear_0020: - act_0020 + xi_0002_0020 = 0
C_0002_linear_0021: - act_0021 + xi_0002_0021 = 0
C_0002_linear_0022: - act_0022 + xi_0002_0022 = 0
C_0002_linear_0023: - act_0023 + xi_0002_0023 = 0
C_0002_linear_0024: - act_0024 + xi_0002_0024 = 0
C_0002_linear_0025: - act_0025 + xi_0002_0025 = 0
C_0002_linear_0026: - act_0026 + xi_0002_0026 = 0
C_0002_linear_0027: - act_0027 + xi_0002_0027 = 0
C_0002_linear_0028: - act_0028 + xi_0002_0028 = 1
C_0002_linear_0029: - act_0029 + xi_0002_0029 = 0
C_0002_linear_0030: - act_0030 + xi_0002_0030 = 0
C_0002_linear_0031: - act_0031 + xi_0002_0031 = 1
C_0002_linear_0032: - act_0032 + xi_0002_0032 = 0
C_0002_linear_0033: - act_0033 + xi_0002_0033 = 0
C_0002_linear_0034: - act_0034 + xi_0002_0034 = 1
C_0002_linear_0035: - act_0035 + xi_0002_0035 = 0
C_0002_linear_0036: - act_0036 + xi_0002_0036 = 0
C_0002_linear_0037: - act_0037 + xi_0002_0037 = 0
C_0002_linear_0038: - act_0038 + xi_0002_0038 = 0
C_0002_linear_0039: - act_0039 + xi_0002_0039 = 0
C_0002_loss_ge: - 10000 omg_0002 - 0.0111828930987 xi_0002_0000
 + 0.0316585861132 xi_0002_0001 + 0.000106039552982 xi_0002_0002
 + 0.2872356913 xi_0002_0003 + 0.013030358965 xi_0002_0004
 + 0.240120705533 xi_0002_0005 + 0.442580447937 xi_0002_0006
 - 0.375980671537 xi_0002_0007 + 0.392374151169 xi_0002_0008
 + 1.06701819784 xi_0002_0009 - 0.942756746323 xi_0002_0010
 + 0.412027349402 xi_0002_0011 + 0.570359951286 xi_0002_0012
 - 0.852905494999 xi_0002_0013 - 0.323418189169 xi_0002_0014
 + 0.252938924417 xi_0002_0015 - 0.0388599557068 xi_0002_0016
 - 0.020417849004 xi_0002_0017 - 0.119001175529 xi_0002_0018
 + 0.47399163059 xi_0002_0019 - 0.445604107063 xi_0002_0020
 - 0.0184582213876 xi_0002_0021 + 0.307589905785 xi_0002_0022
 + 0.444474821864 xi_0002_0023 - 0.187382383206 xi_0002_0024
 + 0.383302875585 xi_0002_0025 - 0.750161596334 xi_0002_0026
 - 1.33170117681 xi_0002_0027 + 0.0190658885385 xi_0002_0028
 - 0.745784276999 xi_0002_0029 - 0.516231038044 xi_0002_0030
 - 0.409255825925 xi_0002_0031 - 0.0994375517393 xi_0002_0032
 - 0.734256048841 xi_0002_0033 - 0.253933375138 xi_0002_0034
 - 0.256674950149 xi_0002_0035 - 0.732341101218 xi_0002_0036
 - 0.86707443001 xi_0002_0037 - 0.319117177314 xi_0002_0038
 + 0.0697086420108 xi_0002_0039 >= -9998.75705057
C_0002_loss_le: - 10000 omg_0002 - 0.0111828930987 xi_0002_0000
 + 0.0316585861132 xi_0002_0001 + 0.000106039552982 xi_0002_0002
 + 0.2872356913 xi_0002_0003 + 0.013030358965 xi_0002_0004
 + 0.240120705533 xi_0002_0005 + 0.442580447937 xi_0002_0006
 - 0.375980671537 xi_0002_0007 + 0.392374151169 xi_0002_0008
 + 1.06701819784 xi_0002_0009 - 0.942756746323 xi_0002_0010
 + 0.412027349402 xi_0002_0011 + 0.570359951286 xi_0002_0012
 - 0.852905494999 xi_0002_0013 - 0.323418189169 xi_0002_0014
 + 0.252938924417 xi_0002_0015 - 0.0388599557068 xi_0002_0016
 - 0.020417849004 xi_0002_0017 - 0.119001175529 xi_0002_0018
 + 0.47399163059 xi_0002_0019 - 0.445604107063 xi_0002_0020
 - 0.0184582213876 xi_0002_0021 + 0.307589905785 xi_0002_0022
 + 0.444474821864 xi_0002_0023 - 0.187382383206 xi_0002_0024
 + 0.383302875585 xi_0002_0025 - 0.750161596334 xi_0002_0026
 - 1.33170117681 xi_0002_0027 + 0.0190658885385 xi_0002_0028
 - 0.745784276999 xi_0002_0029 - 0.516231038044 xi_0002_0030
 - 0.409255825925 xi_0002_0031 - 0.0994375517393 xi_0002_0032
 - 0.734256048841 xi_0002_0033 - 0.253933375138 xi_0002_0034
 - 0.256674950149 xi_0002_0035 - 0.732341101218 xi_0002_0036
 - 0.86707443001 xi_0002_0037 - 0.319117177314 xi_0002_0038
 + 0.0697086420108 xi_0002_0039 <= 1.24294941651
C_0003_cost_0001: cost_0003 - 0.0873361949203 pi_0001_0000
 - 0.0442906580929 pi_0001_0001 >= 0
C_0003_cost_0002: cost_0003 - 0.00528184948823 pi_0002_0000
 - 0.00507766151337 pi_0002_0001 - 0.00487355673643 pi_0002_0002
 - 0.00466953515742 pi_0002_0003 - 0.00446559677624 pi_0002_0004
 - 0.00426174159268 pi_0002_0005 - 0.00405796960644 pi_0002_0006
 - 0.00385428081714 pi_0002_0007 - 0.00365067522426 pi_0002_0008
 - 0.00344715282723 pi_0002_0009 - 0.00324371362535 pi_0002_0010
 - 0.00304035761783 pi_0002_0011 - 0.00283708480379 pi_0002_0012
 - 0.00263389518226 pi_0002_0013 - 0.00243078875215 pi_0002_0014
 - 0.00222776551228 pi_0002_0015 - 0.00202482546141 pi_0002_0016
 - 0.00182196859815 pi_0002_0017 - 0.00161919492105 pi_0002_0018
 - 0.00141650442857 pi_0002_0019 - 0.00121389711904 pi_0002_0020
 - 0.00101137299074 pi_0002_0021 - 0.000808932041821 pi_0002_0022
 - 0.000606574270356 pi_0002_0023 - 0.000404299674323 pi_0002_0024
 - 0.000202108251608 pi_0002_0025 >= 0
C_0003_cost_0003: cost_0003 >= 0
C_0003_cost_0004: cost_0003 >= 0
C_0003_cost_0005: cost_0003 >= 0
C_0003_cost_0006: cost_0003 >= 0
C_0003_cost_0007: cost_0003 >= 0
C_0003_cost_0008: cost_0003 >= 0
C_0003_cost_0009: cost_0003 >= 0
C_0003_cost_0010: cost_0003 >= 0
C_0003_cost_0011: cost_0003 >= 0
C_0003_cost_0012: cost_0003 >= 0
C_0003_cost_0013: cost_0003 >= 0
C_0003_cost_0014: cost_0003 >= 0
C_0003_cost_0015: cost_0003 >= 0
C_0003_cost_0016: cost_0003 >= 0
C_0003_cost_0017: cost_0003 >= 0
C_0003_cost_0018: cost_0003 >= 0
C_0003_cost_0019: cost_0003 >= 0
C_0003_cost_0020: cost_0003 >= 0
C_0003_cost_0021: cost_0003 >= 0
C_0003_cost_0022: cost_0003 >= 0
C_0003_cost_0023: cost_0003 >= 0
C_0003_cost_0024: cost_0003 >= 0
C_0003_cost_0025: cost_0003 >= 0
C_0003_cost_0026: cost_0003 - 0.0106666652041 pi_0026_0000 >= 0
C_0003_cost_0027: cost_0003 >= 0
C_0003_cost_0028: cost_0003 >= 0
C_0003_cost_0029: cost_0003 - 0.426666385001 pi_0029_0000 >= 0
C_0003_cost_0030: cost_0003 >= 0
C_0003_cost_0031: cost_0003 >= 0
C_0003_cost_0032: cost_0003 >= 0
C_0003_cost_0033: cost_0003 >= 0
C_0003_cost_0034: cost_0003 >= 0
C_0003_cost_0035: cost_0003 >= 0
C_0003_cost_0036: cost_0003 >= 0
C_0003_linear_0000: - act_0000 + xi_0003_0000 = 33
C_0003_linear_0001: - act_0001 + xi_0003_0001 = 12
C_0003_linear_0002: - act_0002 + xi_0003_0002 = 2579
C_0003_linear_0003: - act_0003 + xi_0003_0003 = 4
C_0003_linear_0004: - act_0004 + xi_0003_0004 = 1
C_0003_linear_0005: - act_0005 + xi_0003_0005 = 1
C_0003_linear_0006: - act_0006 + xi_0003_0006 = 1
C_0003_linear_0007: - act_0007 + xi_0003_0007 = 0
C_0003_linear_0008: - act_0008 + xi_0003_0008 = 1
C_0003_linear_0009: - act_0009 + xi_0003_0009 = 0
C_0003_linear_0010: - act_0010 + xi_0003_0010 = 0
C_0003_linear_0011: - act_0011 + xi_0003_0011 = 0
C_0003_linear_0012: - act_0012 + xi_0003_0012 = 0
C_0003_linear_0013: - act_0013 + xi_0003_0013 = 0
C_0003_linear_0014: - act_0014 + xi_0003_0014 = 1
C_0003_linear_0015: - act_0015 + xi_0003_0015 = 0
C_0003_linear_0016: - act_0016 + xi_0003_0016 = 0
C_0003_linear_0017: - act_0017 + xi_0003_0017 = 0
C_0003_linear_0018: - act_0018 + xi_0003_0018 = 0
C_0003_linear_0019: - act_0019 + xi_0003_0019 = 0
C_0003_linear_0020: - act_0020 + xi_0003_0020 = 0
C_0003_linear_0021: - act_0021 + xi_0003_0021 = 0
C_0003_linear_0022: - act_0022 + xi_0003_0022 = 0
C_0003_linear_0023: - act_0023 + xi_0003_0023 = 1
C_0003_linear_0024: - act_0024 + xi_0003_0024 = 0
C_0003_linear_0025: - act_0025 + xi_0003_0025 = 0
C_0003_linear_0026: - act_0026 + xi_0003_0026 = 0
C_0003_linear_0027: - act_0027 + xi_0003_0027 = 0
C_0003_linear_0028: - act_0028 + xi_0003_0028 = 1
C_0003_linear_0029: - act_0029 + xi_0003_0029 = 0
C_0003_linear_0030: - act_0030 + xi_0003_0030 = 0
C_0003_linear_0031: - act_0031 + xi_0003_0031 = 1
C_0003_linear_0032: - act_0032 + xi_0003_0032 = 0
C_0003_linear_0033: - act_0033 + xi_0003_0033 = 0
C_0003_linear_0034: - act_0034 + xi_0003_0034 = 1
C_0003_linear_0035: - act_0035 + xi_0003_0035 = 0
C_0003_linear_0036: - act_0036 + xi_0003_0036 = 0
C_0003_linear_0037: - act_0037 + xi_0003_0037 = 0
C_0003_linear_0038: - act_0038 + xi_0003_0038 = 1
C_0003_linear_0039: - act_0039 + xi_0003_0039 = 1
C_0003_loss_ge: - 10000 omg_0003 - 0.0111828930987 xi_0003_0000
 + 0.0316585861132 xi_0003_0001 + 0.000106039552982 xi_0003_0002
 + 0.2872356913 xi_0003_0003 + 0.013030358965 xi_0003_0004
 + 0.240120705533 xi_0003_0005 + 0.442580447937 xi_0003_0006
 - 0.375980671537 xi_0003_0007 + 0.392374151169 xi_0003_0008
 + 1.06701819784 xi_0003_0009 - 0.942756746323 xi_0003_0010
 + 0.412027349402 xi_0003_0011 + 0.570359951286 xi_0003_0012
 - 0.852905494999 xi_0003_0013 - 0.323418189169 xi_0003_0014
 + 0.252938924417 xi_0003_0015 - 0.0388599557068 xi_0003_0016
 - 0.020417849004 xi_0003_0017 - 0.119001175529 xi_0003_0018
 + 0.47399163059 xi_0003_0019 - 0.445604107063 xi_0003_0020
 - 0.0184582213876 xi_0003_0021 + 0.307589905785 xi_0003_0022
 + 0.444474821864 xi_0003_0023 - 0.187382383206 xi_0003_0024
 + 0.383302875585 xi_0003_0025 - 0.750161596334 xi_0003_0026
 - 1.33170117681 xi_0003_0027 + 0.0190658885385 xi_0003_0028
 - 0.745784276999 xi_0003_0029 - 0.516231038044 xi_0003_0030
 - 0.409255825925 xi_0003_0031 - 0.0994375517393 xi_0003_0032
 - 0.734256048841 xi_0003_0033 - 0.253933375138 xi_0003_0034
 - 0.256674950149 xi_0003_0035 - 0.732341101218 xi_0003_0036
 - 0.86707443001 xi_0003_0037 - 0.319117177314 xi_0003_0038
 + 0.0697086420108 xi_0003_0039 >= -9998.75705057
C_0003_loss_le: - 10000 omg_0003 - 0.0111828930987 xi_0003_0000
 + 0.0316585861132 xi_0003_0001 + 0.000106039552982 xi_0003_0002
 + 0.2872356913 xi_0003_0003 + 0.013030358965 xi_0003_0004
 + 0.240120705533 xi_0003_0005 + 0.442580447937 xi_0003_0006
 - 0.375980671537 xi_0003_0007 + 0.392374151169 xi_0003_0008
 + 1.06701819784 xi_0003_0009 - 0.942756746323 xi_0003_0010
 + 0.412027349402 xi_0003_0011 + 0.570359951286 xi_0003_0012
 - 0.852905494999 xi_0003_0013 - 0.323418189169 xi_0003_0014
 + 0.252938924417 xi_0003_0015 - 0.0388599557068 xi_0003_0016
 - 0.020417849004 xi_0003_0017 - 0.119001175529 xi_0003_0018
 + 0.47399163059 xi_0003_0019 - 0.445604107063 xi_0003_0020
 - 0.0184582213876 xi_0003_0021 + 0.307589905785 xi_0003_0022
 + 0.444474821864 xi_0003_0023 - 0.187382383206 xi_0003_0024
 + 0.383302875585 xi_0003_0025 - 0.750161596334 xi_0003_0026
 - 1.33170117681 xi_0003_0027 + 0.0190658885385 xi_0003_0028
 - 0.745784276999 xi_0003_0029 - 0.516231038044 xi_0003_0030
 - 0.409255825925 xi_0003_0031 - 0.0994375517393 xi_0003_0032
 - 0.734256048841 xi_0003_0033 - 0.253933375138 xi_0003_0034
 - 0.256674950149 xi_0003_0035 - 0.732341101218 xi_0003_0036
 - 0.86707443001 xi_0003_0037 - 0.319117177314 xi_0003_0038
 + 0.0697086420108 xi_0003_0039 <= 1.24294941651
C_0004_cost_0001: cost_0004 - 0.0639671434312 pi_0001_0000
 - 0.0315831062354 pi_0001_0001 >= 0
C_0004_cost_0002: cost_0004 - 0.00580744719411 pi_0002_0000
 - 0.00558308757674 pi_0002_0001 - 0.00535880740073 pi_0002_0002
 - 0.00513460669951 pi_0002_0003 - 0.00491048550637 pi_0002_0004
 - 0.00468644385442 pi_0002_0005 - 0.0044624817766 pi_0002_0006
 - 0.00423859930569 pi_0002_0007 - 0.00401479647426 pi_0002_0008
 - 0.00379107331475 pi_0002_0009 - 0.00356742985941 pi_0002_0010
 - 0.00334386614032 pi_0002_0011 - 0.00312038218939 pi_0002_0012
 - 0.00289697803836 pi_0002_0013 - 0.00267365371881 pi_0002_0014
 - 0.00245040926212 pi_0002_0015 - 0.00222724469954 pi_0002_0016
 - 0.00200416006213 pi_0002_0017 - 0.00178115538078 pi_0002_0018
 - 0.00155823068622 pi_0002_0019 - 0.001335386009 pi_0002_0020
 - 0.00111262137952 pi_0002_0021 - 0.000889936827986 pi_0002_0022
 - 0.000667332384465 pi_0002_0023 - 0.000444808078841 pi_0002_0024
 - 0.000222363940835 pi_0002_0025 >= 0
C_0004_cost_0003: cost_0004 >= 0
C_0004_cost_0004: cost_0004 >= 0
C_0004_cost_0005: cost_0004 >= 0
C_0004_cost_0006: cost_0004 >= 0
C_0004_cost_0007: cost_0004 >= 0
C_0004_cost_0008: cost_0004 >= 0
C_0004_cost_0009: cost_0004 >= 0
C_0004_cost_0010: cost_0004 >= 0
C_0004_cost_0011: cost_0004 >= 0
C_0004_cost_0012: cost_0004 >= 0
C_0004_cost_0013: cost_0004 >= 0
C_0004_cost_0014: cost_0004 >= 0
C_0004_cost_0015: cost_0004 >= 0
C_0004_cost_0016: cost_0004 >= 0
C_0004_cost_0017: cost_0004 >= 0
C_0004_cost_0018: cost_0004 >= 0
C_0004_cost_0019: cost_0004 >= 0
C_0004_cost_0020: cost_0004 >= 0
C_0004_cost_0021: cost_0004 >= 0
C_0004_cost_0022: cost_0004 >= 0
C_0004_cost_0023: cost_0004 >= 0
C_0004_cost_0024: cost_0004 >= 0
C_0004_cost_0025: cost_0004 >= 0
C_0004_cost_0026: cost_0004 - 0.0106666652041 pi_0026_0000 >= 0
C_0004_cost_0027: cost_0004 >= 0
C_0004_cost_0028: cost_0004 >= 0
C_0004_cost_0029: cost_0004 - 0.426666385001 pi_0029_0000 >= 0
C_0004_cost_0030: cost_0004 >= 0
C_0004_cost_0031: cost_0004 >= 0
C_0004_cost_0032: cost_0004 >= 0
C_0004_cost_0033: cost_0004 >= 0
C_0004_cost_0034: cost_0004 >= 0
C_0004_cost_0035: cost_0004 >= 0
C_0004_cost_0036: cost_0004 >= 0
C_0004_linear_0000: - act_0000 + xi_0004_0000 = 29
C_0004_linear_0001: - act_0001 + xi_0004_0001 = 24
C_0004_linear_0002: - act_0002 + xi_0004_0002 = 2333
C_0004_linear_0003: - act_0003 + xi_0004_0003 = 4
C_0004_linear_0004: - act_0004 + xi_0004_0004 = 2
C_0004_linear_0005: - act_0005 + xi_0004_0005 = 1
C_0004_linear_0006: - act_0006 + xi_0004_0006 = 0
C_0004_linear_0007: - act_0007 + xi_0004_0007 = 0
C_0004_linear_0008: - act_0008 + xi_0004_0008 = 0
C_0004_linear_0009: - act_0009 + xi_0004_0009 = 0
C_0004_linear_0010: - act_0010 + xi_0004_0010 = 0
C_0004_linear_0011: - act_0011 + xi_0004_0011 = 1
C_0004_linear_0012: - act_0012 + xi_0004_0012 = 0
C_0004_linear_0013: - act_0013 + xi_0004_0013 = 0
C_0004_linear_0014: - act_0014 + xi_0004_0014 = 1
C_0004_linear_0015: - act_0015 + xi_0004_0015 = 0
C_0004_linear_0016: - act_0016 + xi_0004_0016 = 0
C_0004_linear_0017: - act_0017 + xi_0004_0017 = 0
C_0004_linear_0018: - act_0018 + xi_0004_0018 = 0
C_0004_linear_0019: - act_0019 + xi_0004_0019 = 0
C_0004_linear_0020: - act_0020 + xi_0004_0020 = 0
C_0004_linear_0021: - act_0021 + xi_0004_0021 = 1
C_0004_linear_0022: - act_0022 + xi_0004_0022 = 0
C_0004_linear_0023: - act_0023 + xi_0004_0023 = 0
C_0004_linear_0024: - act_0024 + xi_0004_0024 = 0
C_0004_linear_0025: - act_0025 + xi_0004_0025 = 0
C_0004_linear_0026: - act_0026 + xi_0004_0026 = 0
C_0004_linear_0027: - act_0027 + xi_0004_0027 = 0
C_0004_linear_0028: - act_0028 + xi_0004_0028 = 1
C_0004_linear_0029: - act_0029 + xi_0004_0029 = 0
C_0004_linear_0030: - act_0030 + xi_0004_0030 = 0
C_0004_linear_0031: - act_0031 + xi_0004_0031 = 0
C_0004_linear_0032: - act_0032 + xi_0004_0032 = 1
C_0004_linear_0033: - act_0033 + xi_0004_0033 = 0
C_0004_linear_0034: - act_0034 + xi_0004_0034 = 1
C_0004_linear_0035: - act_0035 + xi_0004_0035 = 0
C_0004_linear_0036: - act_0036 + xi_0004_0036 = 0
C_0004_linear_0037: - act_0037 + xi_0004_0037 = 0
C_0004_linear_0038: - act_0038 + xi_0004_0038 = 1
C_0004_linear_0039: - act_0039 + xi_0004_0039 = 1
C_0004_loss_ge: - 10000 omg_0004 - 0.0111828930987 xi_0004_0000
 + 0.0316585861132 xi_0004_0001 + 0.000106039552982 xi_0004_0002
 + 0.2872356913 xi_0004_0003 + 0.013030358965 xi_0004_0004
 + 0.240120705533 xi_0004_0005 + 0.442580447937 xi_0004_0006
 - 0.375980671537 xi_0004_0007 + 0.392374151169 xi_0004_0008
 + 1.06701819784 xi_0004_0009 - 0.942756746323 xi_0004_0010
 + 0.412027349402 xi_0004_0011 + 0.570359951286 xi_0004_0012
 - 0.852905494999 xi_0004_0013 - 0.323418189169 xi_0004_0014
 + 0.252938924417 xi_0004_0015 - 0.0388599557068 xi_0004_0016
 - 0.020417849004 xi_0004_0017 - 0.119001175529 xi_0004_0018
 + 0.47399163059 xi_0004_0019 - 0.445604107063 xi_0004_0020
 - 0.0184582213876 xi_0004_0021 + 0.307589905785 xi_0004_0022
 + 0.444474821864 xi_0004_0023 - 0.187382383206 xi_0004_0024
 + 0.383302875585 xi_0004_0025 - 0.750161596334 xi_0004_0026
 - 1.33170117681 xi_0004_0027 + 0.0190658885385 xi_0004_0028
 - 0.745784276999 xi_0004_0029 - 0.516231038044 xi_0004_0030
 - 0.409255825925 xi_0004_0031 - 0.0994375517393 xi_0004_0032
 - 0.734256048841 xi_0004_0033 - 0.253933375138 xi_0004_0034
 - 0.256674950149 xi_0004_0035 - 0.732341101218 xi_0004_0036
 - 0.86707443001 xi_0004_0037 - 0.319117177314 xi_0004_0038
 + 0.0697086420108 xi_0004_0039 >= -9998.75705057
C_0004_loss_le: - 10000 omg_0004 - 0.0111828930987 xi_0004_0000
 + 0.0316585861132 xi_0004_0001 + 0.000106039552982 xi_0004_0002
 + 0.2872356913 xi_0004_0003 + 0.013030358965 xi_0004_0004
 + 0.240120705533 xi_0004_0005 + 0.442580447937 xi_0004_0006
 - 0.375980671537 xi_0004_0007 + 0.392374151169 xi_0004_0008
 + 1.06701819784 xi_0004_0009 - 0.942756746323 xi_0004_0010
 + 0.412027349402 xi_0004_0011 + 0.570359951286 xi_0004_0012
 - 0.852905494999 xi_0004_0013 - 0.323418189169 xi_0004_0014
 + 0.252938924417 xi_0004_0015 - 0.0388599557068 xi_0004_0016
 - 0.020417849004 xi_0004_0017 - 0.119001175529 xi_0004_0018
 + 0.47399163059 xi_0004_0019 - 0.445604107063 xi_0004_0020
 - 0.0184582213876 xi_0004_0021 + 0.307589905785 xi_0004_0022
 + 0.444474821864 xi_0004_0023 - 0.187382383206 xi_0004_0024
 + 0.383302875585 xi_0004_0025 - 0.750161596334 xi_0004_0026
 - 1.33170117681 xi_0004_0027 + 0.0190658885385 xi_0004_0028
 - 0.745784276999 xi_0004_0029 - 0.516231038044 xi_0004_0030
 - 0.409255825925 xi_0004_0031 - 0.0994375517393 xi_0004_0032
 - 0.734256048841 xi_0004_0033 - 0.253933375138 xi_0004_0034
 - 0.256674950149 xi_0004_0035 - 0.732341101218 xi_0004_0036
 - 0.86707443001 xi_0004_0037 - 0.319117177314 xi_0004_0038
 + 0.0697086420108 xi_0004_0039 <= 1.24294941651
C_0005_cost_0001: cost_0005 - 0.0275526923386 pi_0001_0000
 - 0.0126479830791 pi_0001_0001 >= 0
C_0005_cost_0002: cost_0005 - 0.00418225723696 pi_0002_0000
 - 0.00402046235327 pi_0002_0001 - 0.00385874274665 pi_0002_0002
 - 0.00369709839583 pi_0002_0003 - 0.00353552927953 pi_0002_0004
 - 0.00337403537648 pi_0002_0005 - 0.00321261666542 pi_0002_0006
 - 0.00305127312508 pi_0002_0007 - 0.00289000473417 pi_0002_0008
 - 0.00272881147142 pi_0002_0009 - 0.00256769331557 pi_0002_0010
 - 0.00240665024533 pi_0002_0011 - 0.00224568223944 pi_0002_0012
 - 0.00208478927662 pi_0002_0013 - 0.0019239713356 pi_0002_0014
 - 0.0017632283951 pi_0002_0015 - 0.00160256043385 pi_0002_0016
 - 0.00144196743057 pi_0002_0017 - 0.001281449364 pi_0002_0018
 - 0.00112100621285 pi_0002_0019 - 0.000960637955859 pi_0002_0020
 - 0.000800344571753 pi_0002_0021 - 0.00064012603926 pi_0002_0022
 - 0.000479982337108 pi_0002_0023 - 0.000319913444027 pi_0002_0024
 - 0.000159919338747 pi_0002_0025 >= 0
C_0005_cost_0003: cost_0005 >= 0
C_0005_cost_0004: cost_0005 >= 0
C_0005_cost_0005: cost_0005 >= 0
C_0005_cost_0006: cost_0005 >= 0
C_0005_cost_0007: cost_0005 >= 0
C_0005_cost_0008: cost_0005 >= 0
C_0005_cost_0009: cost_0005 >= 0
C_0005_cost_0010: cost_0005 >= 0
C_0005_cost_0011: cost_0005 >= 0
C_0005_cost_0012: cost_0005 >= 0
C_0005_cost_0013: cost_0005 >= 0
C_0005_cost_0014: cost_0005 >= 0
C_0005_cost_0015: cost_0005 >= 0
C_0005_cost_0016: cost_0005 >= 0
C_0005_cost_0017: cost_0005 >= 0
C_0005_cost_0018: cost_0005 >= 0
C_0005_cost_0019: cost_0005 >= 0
C_0005_cost_0020: cost_0005 >= 0
C_0005_cost_0021: cost_0005 >= 0
C_0005_cost_0022: cost_0005 >= 0
C_0005_cost_0023: cost_0005 >= 0
C_0005_cost_0024: cost_0005 >= 0
C_0005_cost_0025: cost_0005 >= 0
C_0005_cost_0026: cost_0005 - 0.0106666652041 pi_0026_0000 >= 0
C_0005_cost_0027: cost_0005 >= 0
C_0005_cost_0028: cost_0005 >= 0
C_0005_cost_0029: cost_0005 - 0.426666385001 pi_0029_0000 >= 0
C_0005_cost_0030: cost_0005 >= 0
C_0005_cost_0031: cost_0005 >= 0
C_0005_cost_0032: cost_0005 >= 0
C_0005_cost_0033: cost_0005 >= 0
C_0005_cost_0034: cost_0005 >= 0
C_0005_cost_0035: cost_0005 >= 0
C_0005_cost_0036: cost_0005 >= 0
C_0005_linear_0000: - act_0000 + xi_0005_0000 = 31
C_0005_linear_0001: - act_0001 + xi_0005_0001 = 30
C_0005_linear_0002: - act_0002 + xi_0005_0002 = 3108
C_0005_linear_0003: - act_0003 + xi_0005_0003 = 2
C_0005_linear_0004: - act_0004 + xi_0005_0004 = 4
C_0005_linear_0005: - act_0005 + xi_0005_0005 = 1
C_0005_linear_0006: - act_0006 + xi_0005_0006 = 0
C_0005_linear_0007: - act_0007 + xi_0005_0007 = 0
C_0005_linear_0008: - act_0008 + xi_0005_0008 = 1
C_0005_linear_0009: - act_0009 + xi_0005_0009 = 0
C_0005_linear_0010: - act_0010 + xi_0005_0010 = 0
C_0005_linear_0011: - act_0011 + xi_0005_0011 = 0
C_0005_linear_0012: - act_0012 + xi_0005_0012 = 0
C_0005_linear_0013: - act_0013 + xi_0005_0013 = 0
C_0005_linear_0014: - act_0014 + xi_0005_0014 = 1
C_0005_linear_0015: - act_0015 + xi_0005_0015 = 0
C_0005_linear_0016: - act_0016 + xi_0005_0016 = 0
C_0005_linear_0017: - act_0017 + xi_0005_0017 = 0
C_0005_linear_0018: - act_0018 + xi_0005_0018 = 0
C_0005_linear_0019: - act_0019 + xi_0005_0019 = 0
C_0005_linear_0020: - act_0020 + xi_0005_0020 = 0
C_0005_linear_0021: - act_0021 + xi_0005_0021 = 1
C_0005_linear_0022: - act_0022 + xi_0005_0022 = 0
C_0005_linear_0023: - act_0023 + xi_0005_0023 = 0
C_0005_linear_0024: - act_0024 + xi_0005_0024 = 0
C_0005_linear_0025: - act_0025 + xi_0005_0025 = 0
C_0005_linear_0026: - act_0026 + xi_0005_0026 = 0
C_0005_linear_0027: - act_0027 + xi_0005_0027 = 0
C_0005_linear_0028: - act_0028 + xi_0005_0028 = 1
C_0005_linear_0029: - act_0029 + xi_0005_0029 = 0
C_0005_linear_0030: - act_0030 + xi_0005_0030 = 0
C_0005_linear_0031: - act_0031 + xi_0005_0031 = 1
C_0005_linear_0032: - act_0032 + xi_0005_0032 = 0
C_0005_linear_0033: - act_0033 + xi_0005_0033 = 0
C_0005_linear_0034: - act_0034 + xi_0005_0034 = 1
C_0005_linear_0035: - act_0035 + xi_0005_0035 = 0
C_0005_linear_0036: - act_0036 + xi_0005_0036 = 0
C_0005_linear_0037: - act_0037 + xi_0005_0037 = 0
C_0005_linear_0038: - act_0038 + xi_0005_0038 = 0
C_0005_linear_0039: - act_0039 + xi_0005_0039 = 1
C_0005_loss_ge: - 10000 omg_0005 - 0.0111828930987 xi_0005_0000
 + 0.0316585861132 xi_0005_0001 + 0.000106039552982 xi_0005_0002
 + 0.2872356913 xi_0005_0003 + 0.013030358965 xi_0005_0004
 + 0.240120705533 xi_0005_0005 + 0.442580447937 xi_0005_0006
 - 0.375980671537 xi_0005_0007 + 0.392374151169 xi_0005_0008
 + 1.06701819784 xi_0005_0009 - 0.942756746323 xi_0005_0010
 + 0.412027349402 xi_0005_0011 + 0.570359951286 xi_0005_0012
 - 0.852905494999 xi_0005_0013 - 0.323418189169 xi_0005_0014
 + 0.252938924417 xi_0005_0015 - 0.0388599557068 xi_0005_0016
 - 0.020417849004 xi_0005_0017 - 0.119001175529 xi_0005_0018
 + 0.47399163059 xi_0005_0019 - 0.445604107063 xi_0005_0020
 - 0.0184582213876 xi_0005_0021 + 0.307589905785 xi_0005_0022
 + 0.444474821864 xi_0005_0023 - 0.187382383206 xi_0005_0024
 + 0.383302875585 xi_0005_0025 - 0.750161596334 xi_0005_0026
 - 1.33170117681 xi_0005_0027 + 0.0190658885385 xi_0005_0028
 - 0.745784276999 xi_0005_0029 - 0.516231038044 xi_0005_0030
 - 0.409255825925 xi_0005_0031 - 0.0994375517393 xi_0005_0032
 - 0.734256048841 xi_0005_0033 - 0.253933375138 xi_0005_0034
 - 0.256674950149 xi_0005_0035 - 0.732341101218 xi_0005_0036
 - 0.86707443001 xi_0005_0037 - 0.319117177314 xi_0005_0038
 + 0.0697086420108 xi_0005_0039 >= -9998.75705057
C_0005_loss_le: - 10000 omg_0005 - 0.0111828930987 xi_0005_0000
 + 0.0316585861132 xi_0005_0001 + 0.000106039552982 xi_0005_0002
 + 0.2872356913 xi_0005_0003 + 0.013030358965 xi_0005_0004
 + 0.240120705533 xi_0005_0005 + 0.442580447937 xi_0005_0006
 - 0.375980671537 xi_0005_0007 + 0.392374151169 xi_0005_0008
 + 1.06701819784 xi_0005_0009 - 0.942756746323 xi_0005_0010
 + 0.412027349402 xi_0005_0011 + 0.570359951286 xi_0005_0012
 - 0.852905494999 xi_0005_0013 - 0.323418189169 xi_0005_0014
 + 0.252938924417 xi_0005_0015 - 0.0388599557068 xi_0005_0016
 - 0.020417849004 xi_0005_0017 - 0.119001175529 xi_0005_0018
 + 0.47399163059 xi_0005_0019 - 0.445604107063 xi_0005_0020
 - 0.0184582213876 xi_0005_0021 + 0.307589905785 xi_0005_0022
 + 0.444474821864 xi_0005_0023 - 0.187382383206 xi_0005_0024
 + 0.383302875585 xi_0005_0025 - 0.750161596334 xi_0005_0026
 - 1.33170117681 xi_0005_0027 + 0.0190658885385 xi_0005_0028
 - 0.745784276999 xi_0005_0029 - 0.516231038044 xi_0005_0030
 - 0.409255825925 xi_0005_0031 - 0.0994375517393 xi_0005_0032
 - 0.734256048841 xi_0005_0033 - 0.253933375138 xi_0005_0034
 - 0.256674950149 xi_0005_0035 - 0.732341101218 xi_0005_0036
 - 0.86707443001 xi_0005_0037 - 0.319117177314 xi_0005_0038
 + 0.0697086420108 xi_0005_0039 <= 1.24294941651
C_0006_cost_0001: cost_0006 - 0.0873361949203 pi_0001_0000
 - 0.0442906580929 pi_0001_0001 >= 0
C_0006_cost_0002: cost_0006 - 0.00650871289866 pi_0002_0000
 - 0.00625916592759 pi_0002_0001 - 0.00600955424953 pi_0002_0002
 - 0.0057598780712 pi_0002_0003 - 0.00551013759936 pi_0002_0004
 - 0.00526033304084 pi_0002_0005 - 0.00501046460248 pi_0002_0006
 - 0.00476053249118 pi_0002_0007 - 0.0045105369139 pi_0002_0008
 - 0.00426047807762 pi_0002_0009 - 0.00401035618937 pi_0002_0010
 - 0.00376017145622 pi_0002_0011 - 0.00350992408529 pi_0002_0012
 - 0.00325961428374 pi_0002_0013 - 0.00300924225874 pi_0002_0014
 - 0.00275880821755 pi_0002_0015 - 0.00250831236742 pi_0002_0016
 - 0.00225775491567 pi_0002_0017 - 0.00200713606963 pi_0002_0018
 - 0.0017564560367 pi_0002_0019 - 0.00150571502427 pi_0002_0020
 - 0.00125491323981 pi_0002_0021 - 0.0010040508908 pi_0002_0022
 - 0.000753128184747 pi_0002_0023 - 0.000502145329205 pi_0002_0024
 - 0.000251102531753 pi_0002_0025 >= 0
C_0006_cost_0003: cost_0006 >= 0
C_0006_cost_0004: cost_0006 >= 0
C_0006_cost_0005: cost_0006 >= 0
C_0006_cost_0006: cost_0006 >= 0
C_0006_cost_0007: cost_0006 >= 0
C_0006_cost_0008: cost_0006 >= 0
C_0006_cost_0009: cost_0006 >= 0
C_0006_cost_0010: cost_0006 >= 0
C_0006_cost_0011: cost_0006 >= 0
C_0006_cost_0012: cost_0006 >= 0
C_0006_cost_0013: cost_0006 >= 0
C_0006_cost_0014: cost_0006 >= 0
C_0006_cost_0015: cost_0006 >= 0
C_0006_cost_0016: cost_0006 >= 0
C_0006_cost_0017: cost_0006 >= 0
C_0006_cost_0018: cost_0006 >= 0
C_0006_cost_0019: cost_0006 >= 0
C_0006_cost_0020: cost_0006 >= 0
C_0006_cost_0021: cost_0006 >= 0
C_0006_cost_0022: cost_0006 >= 0
C_0006_cost_0023: cost_0006 >= 0
C_0006_cost_0024: cost_0006 >= 0
C_0006_cost_0025: cost_0006 >= 0
C_0006_cost_0026: cost_0006 - 0.0106666652041 pi_0026_0000 >= 0
C_0006_cost_0027: cost_0006 >= 0
C_0006_cost_0028: cost_0006 >= 0
C_0006_cost_0029: cost_0006 - 0.426666385001 pi_0029_0000 >= 0
C_0006_cost_0030: cost_0006 >= 0
C_0006_cost_0031: cost_0006 >= 0
C_0006_cost_0032: cost_0006 >= 0
C_0006_cost_0033: cost_0006 >= 0
C_0006_cost_0034: cost_0006 >= 0
C_0006_cost_0035: cost_0006 >= 0
C_0006_cost_0036: cost_0006 >= 0
C_0006_linear_0000: - act_0000 + xi_0006_0000 = 25
C_0006_linear_0001: - act_0001 + xi_0006_0001 = 12
C_0006_linear_0002: - act_0002 + xi_0006_0002 = 1295
C_0006_linear_0003: - act_0003 + xi_0006_0003 = 3
C_0006_linear_0004: - act_0004 + xi_0006_0004 = 1
C_0006_linear_0005: - act_0005 + xi_0006_0005 = 1
C_0006_linear_0006: - act_0006 + xi_0006_0006 = 0
C_0006_linear_0007: - act_0007 + xi_0006_0007 = 0
C_0006_linear_0008: - act_0008 + xi_0006_0008 = 1
C_0006_linear_0009: - act_0009 + xi_0006_0009 = 0
C_0006_linear_0010: - act_0010 + xi_0006_0010 = 0
C_0006_linear_0011: - act_0011 + xi_0006_0011 = 0
C_0006_linear_0012: - act_0012 + xi_0006_0012 = 0
C_0006_linear_0013: - act_0013 + xi_0006_0013 = 0
C_0006_linear_0014: - act_0014 + xi_0006_0014 = 0
C_0006_linear_0015: - act_0015 + xi_0006_0015 = 1
C_0006_linear_0016: - act_0016 + xi_0006_0016 = 0
C_0006_linear_0017: - act_0017 + xi_0006_0017 = 1
C_0006_linear_0018: - act_0018 + xi_0006_0018 = 0
C_0006_linear_0019: - act_0019 + xi_0006_0019 = 0
C_0006_linear_0020: - act_0020 + xi_0006_0020 = 0
C_0006_linear_0021: - act_0021 + xi_0006_0021 = 0
C_0006_linear_0022: - act_0022 + xi_0006_0022 = 0
C_0006_linear_0023: - act_0023 + xi_0006_0023 = 1
C_0006_linear_0024: - act_0024 + xi_0006_0024 = 0
C_0006_linear_0025: - act_0025 + xi_0006_0025 = 0
C_0006_linear_0026: - act_0026 + xi_0006_0026 = 0
C_0006_linear_0027: - act_0027 + xi_0006_0027 = 0
C_0006_linear_0028: - act_0028 + xi_0006_0028 = 1
C_0006_linear_0029: - act_0029 + xi_0006_0029 = 0
C_0006_linear_0030: - act_0030 + xi_0006_0030 = 0
C_0006_linear_0031: - act_0031 + xi_0006_0031 = 0
C_0006_linear_0032: - act_0032 + xi_0006_0032 = 1
C_0006_linear_0033: - act_0033 + xi_0006_0033 = 0
C_0006_linear_0034: - act_0034 + xi_0006_0034 = 1
C_0006_linear_0035: - act_0035 + xi_0006_0035 = 0
C_0006_linear_0036: - act_0036 + xi_0006_0036 = 0
C_0006_linear_0037: - act_0037 + xi_0006_0037 = 0
C_0006_linear_0038: - act_0038 + xi_0006_0038 = 0
C_0006_linear_0039: - act_0039 + xi_0006_0039 = 0
C_0006_loss_ge: - 10000 omg_0006 - 0.0111828930987 xi_0006_0000
 + 0.0316585861132 xi_0006_0001 + 0.000106039552982 xi_0006_0002
 + 0.2872356913 xi_0006_0003 + 0.013030358965 xi_0006_0004
 + 0.240120705533 xi_0006_0005 + 0.442580447937 xi_0006_0006
 - 0.375980671537 xi_0006_0007 + 0.392374151169 xi_0006_0008
 + 1.06701819784 xi_0006_0009 - 0.942756746323 xi_0006_0010
 + 0.412027349402 xi_0006_0011 + 0.570359951286 xi_0006_0012
 - 0.852905494999 xi_0006_0013 - 0.323418189169 xi_0006_0014
 + 0.252938924417 xi_0006_0015 - 0.0388599557068 xi_0006_0016
 - 0.020417849004 xi_0006_0017 - 0.119001175529 xi_0006_0018
 + 0.47399163059 xi_0006_0019 - 0.445604107063 xi_0006_0020
 - 0.0184582213876 xi_0006_0021 + 0.307589905785 xi_0006_0022
 + 0.444474821864 xi_0006_0023 - 0.187382383206 xi_0006_0024
 + 0.383302875585 xi_0006_0025 - 0.750161596334 xi_0006_0026
 - 1.33170117681 xi_0006_0027 + 0.0190658885385 xi_0006_0028
 - 0.745784276999 xi_0006_0029 - 0.516231038044 xi_0006_0030
 - 0.409255825925 xi_0006_0031 - 0.0994375517393 xi_0006_0032
 - 0.734256048841 xi_0006_0033 - 0.253933375138 xi_0006_0034
 - 0.256674950149 xi_0006_0035 - 0.732341101218 xi_0006_0036
 - 0.86707443001 xi_0006_0037 - 0.319117177314 xi_0006_0038
 + 0.0697086420108 xi_0006_0039 >= -9998.75705057
C_0006_loss_le: - 10000 omg_0006 - 0.0111828930987 xi_0006_0000
 + 0.0316585861132 xi_0006_0001 + 0.000106039552982 xi_0006_0002
 + 0.2872356913 xi_0006_0003 + 0.013030358965 xi_0006_0004
 + 0.240120705533 xi_0006_0005 + 0.442580447937 xi_0006_0006
 - 0.375980671537 xi_0006_0007 + 0.392374151169 xi_0006_0008
 + 1.06701819784 xi_0006_0009 - 0.942756746323 xi_0006_0010
 + 0.412027349402 xi_0006_0011 + 0.570359951286 xi_0006_0012
 - 0.852905494999 xi_0006_0013 - 0.323418189169 xi_0006_0014
 + 0.252938924417 xi_0006_0015 - 0.0388599557068 xi_0006_0016
 - 0.020417849004 xi_0006_0017 - 0.119001175529 xi_0006_0018
 + 0.47399163059 xi_0006_0019 - 0.445604107063 xi_0006_0020
 - 0.0184582213876 xi_0006_0021 + 0.307589905785 xi_0006_0022
 + 0.444474821864 xi_0006_0023 - 0.187382383206 xi_0006_0024
 + 0.383302875585 xi_0006_0025 - 0.750161596334 xi_0006_0026
 - 1.33170117681 xi_0006_0027 + 0.0190658885385 xi_0006_0028
 - 0.745784276999 xi_0006_0029 - 0.516231038044 xi_0006_0030
 - 0.409255825925 xi_0006_0031 - 0.0994375517393 xi_0006_0032
 - 0.734256048841 xi_0006_0033 - 0.253933375138 xi_0006_0034
 - 0.256674950149 xi_0006_0035 - 0.732341101218 xi_0006_0036
 - 0.86707443001 xi_0006_0037 - 0.319117177314 xi_0006_0038
 + 0.0697086420108 xi_0006_0039 <= 1.24294941651
C_0007_cost_0001: cost_0007 - 0.0246929068628 pi_0001_0000
 - 0.0123216428276 pi_0001_0001 >= 0
C_0007_cost_0002: cost_0007 - 0.00664768109571 pi_0002_0000
 - 0.00639155722992 pi_0002_0001 - 0.00613546770589 pi_0002_0002
 - 0.00587941267044 pi_0002_0003 - 0.00562339227016 pi_0002_0004
 - 0.00536740665143 pi_0002_0005 - 0.00511145596038 pi_0002_0006
 - 0.00485554034294 pi_0002_0007 - 0.00459965994478 pi_0002_0008
 - 0.00434381491138 pi_0002_0009 - 0.00408800538797 pi_0002_0010
 - 0.00383223151956 pi_0002_0011 - 0.00357649345091 pi_0002_0012
 - 0.0033207913266 pi_0002_0013 - 0.00306512529094 pi_0002_0014
 - 0.00280949548802 pi_0002_0015 - 0.00255390206172 pi_0002_0016
 - 0.00229834515568 pi_0002_0017 - 0.0020428249133 pi_0002_0018
 - 0.00178734147777 pi_0002_0019 - 0.00153189499204 pi_0002_0020
 - 0.00127648559884 pi_0002_0021 - 0.00102111344066 pi_0002_0022
 - 0.000765778659762 pi_0002_0023 - 0.000510481398188 pi_0002_0024
 - 0.000255221797742 pi_0002_0025 >= 0
C_0007_cost_0003: cost_0007 >= 0
C_0007_cost_0004: cost_0007 >= 0
C_0007_cost_0005: cost_0007 >= 0
C_0007_cost_0006: cost_0007 >= 0
C_0007_cost_0007: cost_0007 >= 0
C_0007_cost_0008: cost_0007 >= 0
C_0007_cost_0009: cost_0007 >= 0
C_0007_cost_0010: cost_0007 >= 0
C_0007_cost_0011: cost_0007 >= 0
C_0007_cost_0012: cost_0007 >= 0
C_0007_cost_0013: cost_0007 >= 0
C_0007_cost_0014: cost_0007 >= 0
C_0007_cost_0015: cost_0007 >= 0
C_0007_cost_0016: cost_0007 >= 0
C_0007_cost_0017: cost_0007 >= 0
C_0007_cost_0018: cost_0007 >= 0
C_0007_cost_0019: cost_0007 >= 0
C_0007_cost_0020: cost_0007 >= 0
C_0007_cost_0021: cost_0007 >= 0
C_0007_cost_0022: cost_0007 >= 0
C_0007_cost_0023: cost_0007 >= 0
C_0007_cost_0024: cost_0007 >= 0
C_0007_cost_0025: cost_0007 >= 0
C_0007_cost_0026: cost_0007 - 0.0106666652041 pi_0026_0000 >= 0
C_0007_cost_0027: cost_0007 >= 0
C_0007_cost_0028: cost_0007 >= 0
C_0007_cost_0029: cost_0007 - 0.426666385001 pi_0029_0000 >= 0
C_0007_cost_0030: cost_0007 >= 0
C_0007_cost_0031: cost_0007 >= 0
C_0007_cost_0032: cost_0007 >= 0
C_0007_cost_0033: cost_0007 >= 0
C_0007_cost_0034: cost_0007 >= 0
C_0007_cost_0035: cost_0007 >= 0
C_0007_cost_0036: cost_0007 >= 0
C_0007_linear_0000: - act_0000 + xi_0007_0000 = 37
C_0007_linear_0001: - act_0001 + xi_0007_0001 = 36
C_0007_linear_0002: - act_0002 + xi_0007_0002 = 1819
C_0007_linear_0003: - act_0003 + xi_0007_0003 = 4
C_0007_linear_0004: - act_0004 + xi_0007_0004 = 4
C_0007_linear_0005: - act_0005 + xi_0007_0005 = 1
C_0007_linear_0006: - act_0006 + xi_0007_0006 = 0
C_0007_linear_0007: - act_0007 + xi_0007_0007 = 1
C_0007_linear_0008: - act_0008 + xi_0007_0008 = 1
C_0007_linear_0009: - act_0009 + xi_0007_0009 = 0
C_0007_linear_0010: - act_0010 + xi_0007_0010 = 0
C_0007_linear_0011: - act_0011 + xi_0007_0011 = 0
C_0007_linear_0012: - act_0012 + xi_0007_0012 = 0
C_0007_linear_0013: - act_0013 + xi_0007_0013 = 0
C_0007_linear_0014: - act_0014 + xi_0007_0014 = 0
C_0007_linear_0015: - act_0015 + xi_0007_0015 = 0
C_0007_linear_0016: - act_0016 + xi_0007_0016 = 0
C_0007_linear_0017: - act_0017 + xi_0007_0017 = 1
C_0007_linear_0018: - act_0018 + xi_0007_0018 = 0
C_0007_linear_0019: - act_0019 + xi_0007_0019 = 1
C_0007_linear_0020: - act_0020 + xi_0007_0020 = 0
C_0007_linear_0021: - act_0021 + xi_0007_0021 = 0
C_0007_linear_0022: - act_0022 + xi_0007_0022 = 0
C_0007_linear_0023: - act_0023 + xi_0007_0023 = 0
C_0007_linear_0024: - act_0024 + xi_0007_0024 = 0
C_0007_linear_0025: - act_0025 + xi_0007_0025 = 0
C_0007_linear_0026: - act_0026 + xi_0007_0026 = 0
C_0007_linear_0027: - act_0027 + xi_0007_0027 = 0
C_0007_linear_0028: - act_0028 + xi_0007_0028 = 0
C_0007_linear_0029: - act_0029 + xi_0007_0029 = 0
C_0007_linear_0030: - act_0030 + xi_0007_0030 = 1
C_0007_linear_0031: - act_0031 + xi_0007_0031 = 1
C_0007_linear_0032: - act_0032 + xi_0007_0032 = 0
C_0007_linear_0033: - act_0033 + xi_0007_0033 = 0
C_0007_linear_0034: - act_0034 + xi_0007_0034 = 1
C_0007_linear_0035: - act_0035 + xi_0007_0035 = 0
C_0007_linear_0036: - act_0036 + xi_0007_0036 = 0
C_0007_linear_0037: - act_0037 + xi_0007_0037 = 0
C_0007_linear_0038: - act_0038 + xi_0007_0038 = 1
C_0007_linear_0039: - act_0039 + xi_0007_0039 = 1
C_0007_loss_ge: - 10000 omg_0007 - 0.0111828930987 xi_0007_0000
 + 0.0316585861132 xi_0007_0001 + 0.000106039552982 xi_0007_0002
 + 0.2872356913 xi_0007_0003 + 0.013030358965 xi_0007_0004
 + 0.240120705533 xi_0007_0005 + 0.442580447937 xi_0007_0006
 - 0.375980671537 xi_0007_0007 + 0.392374151169 xi_0007_0008
 + 1.06701819784 xi_0007_0009 - 0.942756746323 xi_0007_0010
 + 0.412027349402 xi_0007_0011 + 0.570359951286 xi_0007_0012
 - 0.852905494999 xi_0007_0013 - 0.323418189169 xi_0007_0014
 + 0.252938924417 xi_0007_0015 - 0.0388599557068 xi_0007_0016
 - 0.020417849004 xi_0007_0017 - 0.119001175529 xi_0007_0018
 + 0.47399163059 xi_0007_0019 - 0.445604107063 xi_0007_0020
 - 0.0184582213876 xi_0007_0021 + 0.307589905785 xi_0007_0022
 + 0.444474821864 xi_0007_0023 - 0.187382383206 xi_0007_0024
 + 0.383302875585 xi_0007_0025 - 0.750161596334 xi_0007_0026
 - 1.33170117681 xi_0007_0027 + 0.0190658885385 xi_0007_0028
 - 0.745784276999 xi_0007_0029 - 0.516231038044 xi_0007_0030
 - 0.409255825925 xi_0007_0031 - 0.0994375517393 xi_0007_0032
 - 0.734256048841 xi_0007_0033 - 0.253933375138 xi_0007_0034
 - 0.256674950149 xi_0007_0035 - 0.732341101218 xi_0007_0036
 - 0.86707443001 xi_0007_0037 - 0.319117177314 xi_0007_0038
 + 0.0697086420108 xi_0007_0039 >= -9998.75705057
C_0007_loss_le: - 10000 omg_0007 - 0.0111828930987 xi_0007_0000
 + 0.0316585861132 xi_0007_0001 + 0.000106039552982 xi_0007_0002
 + 0.2872356913 xi_0007_0003 + 0.013030358965 xi_0007_0004
 + 0.240120705533 xi_0007_0005 + 0.442580447937 xi_0007_0006
 - 0.375980671537 xi_0007_0007 + 0.392374151169 xi_0007_0008
 + 1.06701819784 xi_0007_0009 - 0.942756746323 xi_0007_0010
 + 0.412027349402 xi_0007_0011 + 0.570359951286 xi_0007_0012
 - 0.852905494999 xi_0007_0013 - 0.323418189169 xi_0007_0014
 + 0.252938924417 xi_0007_0015 - 0.0388599557068 xi_0007_0016
 - 0.020417849004 xi_0007_0017 - 0.119001175529 xi_0007_0018
 + 0.47399163059 xi_0007_0019 - 0.445604107063 xi_0007_0020
 - 0.0184582213876 xi_0007_0021 + 0.307589905785 xi_0007_0022
 + 0.444474821864 xi_0007_0023 - 0.187382383206 xi_0007_0024
 + 0.383302875585 xi_0007_0025 - 0.750161596334 xi_0007_0026
 - 1.33170117681 xi_0007_0027 + 0.0190658885385 xi_0007_0028
 - 0.745784276999 xi_0007_0029 - 0.516231038044 xi_0007_0030
 - 0.409255825925 xi_0007_0031 - 0.0994375517393 xi_0007_0032
 - 0.734256048841 xi_0007_0033 - 0.253933375138 xi_0007_0034
 - 0.256674950149 xi_0007_0035 - 0.732341101218 xi_0007_0036
 - 0.86707443001 xi_0007_0037 - 0.319117177314 xi_0007_0038
 + 0.0697086420108 xi_0007_0039 <= 1.24294941651
C_0008_cost_0001: cost_0008 - 0.0124000182326 pi_0001_0000
 - 0.00617282715365 pi_0001_0001 >= 0
C_0008_cost_0002: cost_0008 - 0.000289970621632 pi_0002_0000
 - 0.000278774051148 pi_0002_0001 - 0.00026758101238 pi_0002_0002
 - 0.000256391502391 pi_0002_0003 - 0.000245205518243 pi_0002_0004
 - 0.000234023057003 pi_0002_0005 - 0.000222844115742 pi_0002_0006
 - 0.000211668691533 pi_0002_0007 - 0.00020049678145 pi_0002_0008
 - 0.000189328382573 pi_0002_0009 - 0.000178163491984 pi_0002_0010
 - 0.000167002106767 pi_0002_0011 - 0.00015584422401 pi_0002_0012
 - 0.000144689840805 pi_0002_0013 - 0.000133538954243 pi_0002_0014
 - 0.000122391561423 pi_0002_0015 - 0.000111247659444 pi_0002_0016
 - 0.000100107245408 pi_0002_0017 - 8.89703164224e-05 pi_0002_0018
 - 7.78368695946e-05 pi_0002_0019 - 6.67069020368e-05 pi_0002_0020
 - 5.55804108638e-05 pi_0002_0021 - 4.44573931934e-05 pi_0002_0022
 - 3.33378461463e-05 pi_0002_0023 - 2.22217668466e-05 pi_0002_0024
 - 1.11091524213e-05 pi_0002_0025 >= 0
C_0008_cost_0003: cost_0008 >= 0
C_0008_cost_0004: cost_0008 >= 0
C_0008_cost_0005: cost_0008 >= 0
C_0008_cost_0006: cost_0008 >= 0
C_0008_cost_0007: cost_0008 >= 0
C_0008_cost_0008: cost_0008 >= 0
C_0008_cost_0009: cost_0008 >= 0
C_0008_cost_0010: cost_0008 >= 0
C_0008_cost_0011: cost_0008 >= 0
C_0008_cost_0012: cost_0008 >= 0
C_0008_cost_0013: cost_0008 >= 0
C_0008_cost_0014: cost_0008 >= 0
C_0008_cost_0015: cost_0008 >= 0
C_0008_cost_0016: cost_0008 >= 0
C_0008_cost_0017: cost_0008 >= 0
C_0008_cost_0018: cost_0008 >= 0
C_0008_cost_0019: cost_0008 >= 0
C_0008_cost_0020: cost_0008 >= 0
C_0008_cost_0021: cost_0008 >= 0
C_0008_cost_0022: cost_0008 >= 0
C_0008_cost_0023: cost_0008 >= 0
C_0008_cost_0024: cost_0008 >= 0
C_0008_cost_0025: cost_0008 >= 0
C_0008_cost_0026: cost_0008 - 0.0106666652041 pi_0026_0000 >= 0
C_0008_cost_0027: cost_0008 >= 0
C_0008_cost_0028: cost_0008 >= 0
C_0008_cost_0029: cost_0008 - 0.426666385001 pi_0029_0000 >= 0
C_0008_cost_0030: cost_0008 >= 0
C_0008_cost_0031: cost_0008 >= 0
C_0008_cost_0032: cost_0008 >= 0
C_0008_cost_0033: cost_0008 >= 0
C_0008_cost_0034: cost_0008 >= 0
C_0008_cost_0035: cost_0008 >= 0
C_0008_cost_0036: cost_0008 >= 0
C_0008_linear_0000: - act_0000 + xi_0008_0000 = 44
C_0008_linear_0001: - act_0001 + xi_0008_0001 = 48
C_0008_linear_0002: - act_0002 + xi_0008_0002 = 10127
C_0008_linear_0003: - act_0003 + xi_0008_0003 = 2
C_0008_linear_0004: - act_0004 + xi_0008_0004 = 2
C_0008_linear_0005: - act_0005 + xi_0008_0005 = 1
C_0008_linear_0006: - act_0006 + xi_0008_0006 = 0
C_0008_linear_0007: - act_0007 + xi_0008_0007 = 0
C_0008_linear_0008: - act_0008 + xi_0008_0008 = 1
C_0008_linear_0009: - act_0009 + xi_0008_0009 = 0
C_0008_linear_0010: - act_0010 + xi_0008_0010 = 1
C_0008_linear_0011: - act_0011 + xi_0008_0011 = 1
C_0008_linear_0012: - act_0012 + xi_0008_0012 = 0
C_0008_linear_0013: - act_0013 + xi_0008_0013 = 0
C_0008_linear_0014: - act_0014 + xi_0008_0014 = 0
C_0008_linear_0015: - act_0015 + xi_0008_0015 = 0
C_0008_linear_0016: - act_0016 + xi_0008_0016 = 0
C_0008_linear_0017: - act_0017 + xi_0008_0017 = 1
C_0008_linear_0018: - act_0018 + xi_0008_0018 = 0
C_0008_linear_0019: - act_0019 + xi_0008_0019 = 0
C_0008_linear_0020: - act_0020 + xi_0008_0020 = 0
C_0008_linear_0021: - act_0021 + xi_0008_0021 = 0
C_0008_linear_0022: - act_0022 + xi_0008_0022 = 0
C_0008_linear_0023: - act_0023 + xi_0008_0023 = 1
C_0008_linear_0024: - act_0024 + xi_0008_0024 = 0
C_0008_linear_0025: - act_0025 + xi_0008_0025 = 0
C_0008_linear_0026: - act_0026 + xi_0008_0026 = 0
C_0008_linear_0027: - act_0027 + xi_0008_0027 = 0
C_0008_linear_0028: - act_0028 + xi_0008_0028 = 0
C_0008_linear_0029: - act_0029 + xi_0008_0029 = 0
C_0008_linear_0030: - act_0030 + xi_0008_0030 = 1
C_0008_linear_0031: - act_0031 + xi_0008_0031 = 1
C_0008_linear_0032: - act_0032 + xi_0008_0032 = 0
C_0008_linear_0033: - act_0033 + xi_0008_0033 = 0
C_0008_linear_0034: - act_0034 + xi_0008_0034 = 0
C_0008_linear_0035: - act_0035 + xi_0008_0035 = 0
C_0008_linear_0036: - act_0036 + xi_0008_0036 = 1
C_0008_linear_0037: - act_0037 + xi_0008_0037 = 0
C_0008_linear_0038: - act_0038 + xi_0008_0038 = 1
C_0008_linear_0039: - act_0039 + xi_0008_0039 = 1
C_0008_loss_ge: - 10000 omg_0008 - 0.0111828930987 xi_0008_0000
 + 0.0316585861132 xi_0008_0001 + 0.000106039552982 xi_0008_0002
 + 0.2872356913 xi_0008_0003 + 0.013030358965 xi_0008_0004
 + 0.240120705533 xi_0008_0005 + 0.442580447937 xi_0008_0006
 - 0.375980671537 xi_0008_0007 + 0.392374151169 xi_0008_0008
 + 1.06701819784 xi_0008_0009 - 0.942756746323 xi_0008_0010
 + 0.412027349402 xi_0008_0011 + 0.570359951286 xi_0008_0012
 - 0.852905494999 xi_0008_0013 - 0.323418189169 xi_0008_0014
 + 0.252938924417 xi_0008_0015 - 0.0388599557068 xi_0008_0016
 - 0.020417849004 xi_0008_0017 - 0.119001175529 xi_0008_0018
 + 0.47399163059 xi_0008_0019 - 0.445604107063 xi_0008_0020
 - 0.0184582213876 xi_0008_0021 + 0.307589905785 xi_0008_0022
 + 0.444474821864 xi_0008_0023 - 0.187382383206 xi_0008_0024
 + 0.383302875585 xi_0008_0025 - 0.750161596334 xi_0008_0026
 - 1.33170117681 xi_0008_0027 + 0.0190658885385 xi_0008_0028
 - 0.745784276999 xi_0008_0029 - 0.516231038044 xi_0008_0030
 - 0.409255825925 xi_0008_0031 - 0.0994375517393 xi_0008_0032
 - 0.734256048841 xi_0008_0033 - 0.253933375138 xi_0008_0034
 - 0.256674950149 xi_0008_0035 - 0.732341101218 xi_0008_0036
 - 0.86707443001 xi_0008_0037 - 0.319117177314 xi_0008_0038
 + 0.0697086420108 xi_0008_0039 >= -9998.75705057
C_0008_loss_le: - 10000 omg_0008 - 0.0111828930987 xi_0008_0000
 + 0.0316585861132 xi_0008_0001 + 0.000106039552982 xi_0008_0002
 + 0.2872356913 xi_0008_0003 + 0.013030358965 xi_0008_0004
 + 0.240120705533 xi_0008_0005 + 0.442580447937 xi_0008_0006
 - 0.375980671537 xi_0008_0007 + 0.392374151169 xi_0008_0008
 + 1.06701819784 xi_0008_0009 - 0.942756746323 xi_0008_0010
 + 0.412027349402 xi_0008_0011 + 0.570359951286 xi_0008_0012
 - 0.852905494999 xi_0008_0013 - 0.323418189169 xi_0008_0014
 + 0.252938924417 xi_0008_0015 - 0.0388599557068 xi_0008_0016
 - 0.020417849004 xi_0008_0017 - 0.119001175529 xi_0008_0018
 + 0.47399163059 xi_0008_0019 - 0.445604107063 xi_0008_0020
 - 0.0184582213876 xi_0008_0021 + 0.307589905785 xi_0008_0022
 + 0.444474821864 xi_0008_0023 - 0.187382383206 xi_0008_0024
 + 0.383302875585 xi_0008_0025 - 0.750161596334 xi_0008_0026
 - 1.33170117681 xi_0008_0027 + 0.0190658885385 xi_0008_0028
 - 0.745784276999 xi_0008_0029 - 0.516231038044 xi_0008_0030
 - 0.409255825925 xi_0008_0031 - 0.0994375517393 xi_0008_0032
 - 0.734256048841 xi_0008_0033 - 0.253933375138 xi_0008_0034
 - 0.256674950149 xi_0008_0035 - 0.732341101218 xi_0008_0036
 - 0.86707443001 xi_0008_0037 - 0.319117177314 xi_0008_0038
 + 0.0697086420108 xi_0008_0039 <= 1.24294941651
C_0009_cost_0001: cost_0009 - 0.00352138274643 pi_0001_0000
 - 0.00177674940945 pi_0001_0001 >= 0
C_0009_cost_0002: cost_0009 - 0.00113892258207 pi_0002_0000
 - 0.00109508191224 pi_0002_0001 - 0.00105124407366 pi_0002_0002
 - 0.00100740907181 pi_0002_0003 - 0.000963576912225 pi_0002_0004
 - 0.00091974760044 pi_0002_0005 - 0.000875921142033 pi_0002_0006
 - 0.000832097542605 pi_0002_0007 - 0.000788276807784 pi_0002_0008
 - 0.000744458943222 pi_0002_0009 - 0.0007006439546 pi_0002_0010
 - 0.000656831847624 pi_0002_0011 - 0.000613022628025 pi_0002_0012
 - 0.000569216301563 pi_0002_0013 - 0.000525412874023 pi_0002_0014
 - 0.000481612351213 pi_0002_0015 - 0.000437814738971 pi_0002_0016
 - 0.000394020043159 pi_0002_0017 - 0.000350228269663 pi_0002_0018
 - 0.000306439424397 pi_0002_0019 - 0.0002626535133 pi_0002_0020
 - 0.000218870542335 pi_0002_0021 - 0.000175090517491 pi_0002_0022
 - 0.000131313444784 pi_0002_0023 - 8.75393302526e-05 pi_0002_0024
 - 4.37681799614e-05 pi_0002_0025 >= 0
C_0009_cost_0003: cost_0009 >= 0
C_0009_cost_0004: cost_0009 >= 0
C_0009_cost_0005: cost_0009 >= 0
C_0009_cost_0006: cost_0009 >= 0
C_0009_cost_0007: cost_0009 >= 0
C_0009_cost_0008: cost_0009 >= 0
C_0009_cost_0009: cost_0009 >= 0
C_0009_cost_0010: cost_0009 >= 0
C_0009_cost_0011: cost_0009 >= 0
C_0009_cost_0012: cost_0009 >= 0
C_0009_cost_0013: cost_0009 >= 0
C_0009_cost_0014: cost_0009 >= 0
C_0009_cost_0015: cost_0009 >= 0
C_0009_cost_0016: cost_0009 >= 0
C_0009_cost_0017: cost_0009 >= 0
C_0009_cost_0018: cost_0009 >= 0
C_0009_cost_0019: cost_0009 >= 0
C_0009_cost_0020: cost_0009 >= 0
C_0009_cost_0021: cost_0009 >= 0
C_0009_cost_0022: cost_0009 >= 0
C_0009_cost_0023: cost_0009 >= 0
C_0009_cost_0024: cost_0009 >= 0
C_0009_cost_0025: cost_0009 >= 0
C_0009_cost_0026: cost_0009 - 0.0106666652041 pi_0026_0000 >= 0
C_0009_cost_0027: cost_0009 >= 0
C_0009_cost_0028: cost_0009 >= 0
C_0009_cost_0029: cost_0009 - 0.426666385001 pi_0029_0000 >= 0
C_0009_cost_0030: cost_0009 >= 0
C_0009_cost_0031: cost_0009 >= 0
C_0009_cost_0032: cost_0009 >= 0
C_0009_cost_0033: cost_0009 >= 0
C_0009_cost_0034: cost_0009 >= 0
C_0009_cost_0035: cost_0009 >= 0
C_0009_cost_0036: cost_0009 >= 0
C_0009_linear_0000: - act_0000 + xi_0009_0000 = 42
C_0009_linear_0001: - act_0001 + xi_0009_0001 = 60
C_0009_linear_0002: - act_0002 + xi_0009_0002 = 6288
C_0009_linear_0003: - act_0003 + xi_0009_0003 = 4
C_0009_linear_0004: - act_0004 + xi_0009_0004 = 4
C_0009_linear_0005: - act_0005 + xi_0009_0005 = 1
C_0009_linear_0006: - act_0006 + xi_0009_0006 = 0
C_0009_linear_0007: - act_0007 + xi_0009_0007 = 0
C_0009_linear_0008: - act_0008 + xi_0009_0008 = 1
C_0009_linear_0009: - act_0009 + xi_0009_0009 = 0
C_0009_linear_0010: - act_0010 + xi_0009_0010 = 0
C_0009_linear_0011: - act_0011 + xi_0009_0011 = 0
C_0009_linear_0012: - act_0012 + xi_0009_0012 = 0
C_0009_linear_0013: - act_0013 + xi_0009_0013 = 0
C_0009_linear_0014: - act_0014 + xi_0009_0014 = 0
C_0009_linear_0015: - act_0015 + xi_0009_0015 = 0
C_0009_linear_0016: - act_0016 + xi_0009_0016 = 0
C_0009_linear_0017: - act_0017 + xi_0009_0017 = 1
C_0009_linear_0018: - act_0018 + xi_0009_0018 = 0
C_0009_linear_0019: - act_0019 + xi_0009_0019 = 1
C_0009_linear_0020: - act_0020 + xi_0009_0020 = 0
C_0009_linear_0021: - act_0021 + xi_0009_0021 = 0
C_0009_linear_0022: - act_0022 + xi_0009_0022 = 0
C_0009_linear_0023: - act_0023 + xi_0009_0023 = 0
C_0009_linear_0024: - act_0024 + xi_0009_0024 = 0
C_0009_linear_0025: - act_0025 + xi_0009_0025 = 0
C_0009_linear_0026: - act_0026 + xi_0009_0026 = 0
C_0009_linear_0027: - act_0027 + xi_0009_0027 = 0
C_0009_linear_0028: - act_0028 + xi_0009_0028 = 0
C_0009_linear_0029: - act_0029 + xi_0009_0029 = 0
C_0009_linear_0030: - act_0030 + xi_0009_0030 = 1
C_0009_linear_0031: - act_0031 + xi_0009_0031 = 0
C_0009_linear_0032: - act_0032 + xi_0009_0032 = 1
C_0009_linear_0033: - act_0033 + xi_0009_0033 = 0
C_0009_linear_0034: - act_0034 + xi_0009_0034 = 1
C_0009_linear_0035: - act_0035 + xi_0009_0035 = 0
C_0009_linear_0036: - act_0036 + xi_0009_0036 = 0
C_0009_linear_0037: - act_0037 + xi_0009_0037 = 0
C_0009_linear_0038: - act_0038 + xi_0009_0038 = 1
C_0009_linear_0039: - act_0039 + xi_0009_0039 = 1
C_0009_loss_ge: - 10000 omg_0009 - 0.0111828930987 xi_0009_0000
 + 0.0316585861132 xi_0009_0001 + 0.000106039552982 xi_0009_0002
 + 0.2872356913 xi_0009_0003 + 0.013030358965 xi_0009_0004
 + 0.240120705533 xi_0009_0005 + 0.442580447937 xi_0009_0006
 - 0.375980671537 xi_0009_0007 + 0.392374151169 xi_0009_0008
 + 1.06701819784 xi_0009_0009 - 0.942756746323 xi_0009_0010
 + 0.412027349402 xi_0009_0011 + 0.570359951286 xi_0009_0012
 - 0.852905494999 xi_0009_0013 - 0.323418189169 xi_0009_0014
 + 0.252938924417 xi_0009_0015 - 0.0388599557068 xi_0009_0016
 - 0.020417849004 xi_0009_0017 - 0.119001175529 xi_0009_0018
 + 0.47399163059 xi_0009_0019 - 0.445604107063 xi_0009_0020
 - 0.0184582213876 xi_0009_0021 + 0.307589905785 xi_0009_0022
 + 0.444474821864 xi_0009_0023 - 0.187382383206 xi_0009_0024
 + 0.383302875585 xi_0009_0025 - 0.750161596334 xi_0009_0026
 - 1.33170117681 xi_0009_0027 + 0.0190658885385 xi_0009_0028
 - 0.745784276999 xi_0009_0029 - 0.516231038044 xi_0009_0030
 - 0.409255825925 xi_0009_0031 - 0.0994375517393 xi_0009_0032
 - 0.734256048841 xi_0009_0033 - 0.253933375138 xi_0009_0034
 - 0.256674950149 xi_0009_0035 - 0.732341101218 xi_0009_0036
 - 0.86707443001 xi_0009_0037 - 0.319117177314 xi_0009_0038
 + 0.0697086420108 xi_0009_0039 >= -9998.75705057
C_0009_loss_le: - 10000 omg_0009 - 0.0111828930987 xi_0009_0000
 + 0.0316585861132 xi_0009_0001 + 0.000106039552982 xi_0009_0002
 + 0.2872356913 xi_0009_0003 + 0.013030358965 xi_0009_0004
 + 0.240120705533 xi_0009_0005 + 0.442580447937 xi_0009_0006
 - 0.375980671537 xi_0009_0007 + 0.392374151169 xi_0009_0008
 + 1.06701819784 xi_0009_0009 - 0.942756746323 xi_0009_0010
 + 0.412027349402 xi_0009_0011 + 0.570359951286 xi_0009_0012
 - 0.852905494999 xi_0009_0013 - 0.323418189169 xi_0009_0014
 + 0.252938924417 xi_0009_0015 - 0.0388599557068 xi_0009_0016
 - 0.020417849004 xi_0009_0017 - 0.119001175529 xi_0009_0018
 + 0.47399163059 xi_0009_0019 - 0.445604107063 xi_0009_0020
 - 0.0184582213876 xi_0009_0021 + 0.307589905785 xi_0009_0022
 + 0.444474821864 xi_0009_0023 - 0.187382383206 xi_0009_0024
 + 0.383302875585 xi_0009_0025 - 0.750161596334 xi_0009_0026
 - 1.33170117681 xi_0009_0027 + 0.0190658885385 xi_0009_0028
 - 0.745784276999 xi_0009_0029 - 0.516231038044 xi_0009_0030
 - 0.409255825925 xi_0009_0031 - 0.0994375517393 xi_0009_0032
 - 0.734256048841 xi_0009_0033 - 0.253933375138 xi_0009_0034
 - 0.256674950149 xi_0009_0035 - 0.732341101218 xi_0009_0036
 - 0.86707443001 xi_0009_0037 - 0.319117177314 xi_0009_0038
 + 0.0697086420108 xi_0009_0039 <= 1.24294941651
C_0010_cost_0001: cost_0010 - 0.0639671434312 pi_0001_0000
 - 0.0315831062354 pi_0001_0001 >= 0
C_0010_cost_0002: cost_0010 - 0.00105735040567 pi_0002_0000
 - 0.00101658320031 pi_0002_0001 - 0.000975823920371 pi_0002_0002
 - 0.000935072574063 pi_0002_0003 - 0.000894329169575 pi_0002_0004
 - 0.00085359371509 pi_0002_0005 - 0.000812866218778 pi_0002_0006
 - 0.0007721466888 pi_0002_0007 - 0.000731435133307 pi_0002_0008
 - 0.000690731560438 pi_0002_0009 - 0.000650035978324 pi_0002_0010
 - 0.000609348395082 pi_0002_0011 - 0.000568668818822 pi_0002_0012
 - 0.000527997257642 pi_0002_0013 - 0.00048733371963 pi_0002_0014
 - 0.000446678212862 pi_0002_0015 - 0.000406030745404 pi_0002_0016
 - 0.000365391325314 pi_0002_0017 - 0.000324759960636 pi_0002_0018
 - 0.000284136659405 pi_0002_0019 - 0.000243521429646 pi_0002_0020
 - 0.000202914279371 pi_0002_0021 - 0.000162315216584 pi_0002_0022
 - 0.000121724249277 pi_0002_0023 - 8.11413854321e-05 pi_0002_0024
 - 4.05666330197e-05 pi_0002_0025 >= 0
C_0010_cost_0003: cost_0010 >= 0
C_0010_cost_0004: cost_0010 >= 0
C_0010_cost_0005: cost_0010 >= 0
C_0010_cost_0006: cost_0010 >= 0
C_0010_cost_0007: cost_0010 >= 0
C_0010_cost_0008: cost_0010 >= 0
C_0010_cost_0009: cost_0010 >= 0
C_0010_cost_0010: cost_0010 >= 0
C_0010_cost_0011: cost_0010 >= 0
C_0010_cost_0012: cost_0010 >= 0
C_0010_cost_0013: cost_0010 >= 0
C_0010_cost_0014: cost_0010 >= 0
C_0010_cost_0015: cost_0010 >= 0
C_0010_cost_0016: cost_0010 >= 0
C_0010_cost_0017: cost_0010 >= 0
C_0010_cost_0018: cost_0010 >= 0
C_0010_cost_0019: cost_0010 >= 0
C_0010_cost_0020: cost_0010 >= 0
C_0010_cost_0021: cost_0010 >= 0
C_0010_cost_0022: cost_0010 >= 0
C_0010_cost_0023: cost_0010 >= 0
C_0010_cost_0024: cost_0010 >= 0
C_0010_cost_0025: cost_0010 >= 0
C_0010_cost_0026: cost_0010 - 0.0106666652041 pi_0026_0000 >= 0
C_0010_cost_0027: cost_0010 >= 0
C_0010_cost_0028: cost_0010 >= 0
C_0010_cost_0029: cost_0010 - 0.426666385001 pi_0029_0000 >= 0
C_0010_cost_0030: cost_0010 >= 0
C_0010_cost_0031: cost_0010 >= 0
C_0010_cost_0032: cost_0010 >= 0
C_0010_cost_0033: cost_0010 >= 0
C_0010_cost_0034: cost_0010 >= 0
C_0010_cost_0035: cost_0010 >= 0
C_0010_cost_0036: cost_0010 >= 0
C_0010_linear_0000: - act_0000 + xi_0010_0000 = 55
C_0010_linear_0001: - act_0001 + xi_0010_0001 = 24
C_0010_linear_0002: - act_0002 + xi_0010_0002 = 6872
C_0010_linear_0003: - act_0003 + xi_0010_0003 = 2
C_0010_linear_0004: - act_0004 + xi_0010_0004 = 1
C_0010_linear_0005: - act_0005 + xi_0010_0005 = 1
C_0010_linear_0006: - act_0006 + xi_0010_0006 = 0
C_0010_linear_0007: - act_0007 + xi_0010_0007 = 1
C_0010_linear_0008: - act_0008 + xi_0010_0008 = 1
C_0010_linear_0009: - act_0009 + xi_0010_0009 = 1
C_0010_linear_0010: - act_0010 + xi_0010_0010 = 0
C_0010_linear_0011: - act_0011 + xi_0010_0011 = 1
C_0010_linear_0012: - act_0012 + xi_0010_0012 = 0
C_0010_linear_0013: - act_0013 + xi_0010_0013 = 0
C_0010_linear_0014: - act_0014 + xi_0010_0014 = 1
C_0010_linear_0015: - act_0015 + xi_0010_0015 = 0
C_0010_linear_0016: - act_0016 + xi_0010_0016 = 0
C_0010_linear_0017: - act_0017 + xi_0010_0017 = 1
C_0010_linear_0018: - act_0018 + xi_0010_0018 = 0
C_0010_linear_0019: - act_0019 + xi_0010_0019 = 0
C_0010_linear_0020: - act_0020 + xi_0010_0020 = 0
C_0010_linear_0021: - act_0021 + xi_0010_0021 = 1
C_0010_linear_0022: - act_0022 + xi_0010_0022 = 0
C_0010_linear_0023: - act_0023 + xi_0010_0023 = 0
C_0010_linear_0024: - act_0024 + xi_0010_0024 = 0
C_0010_linear_0025: - act_0025 + xi_0010_0025 = 0
C_0010_linear_0026: - act_0026 + xi_0010_0026 = 0
C_0010_linear_0027: - act_0027 + xi_0010_0027 = 0
C_0010_linear_0028: - act_0028 + xi_0010_0028 = 1
C_0010_linear_0029: - act_0029 + xi_0010_0029 = 0
C_0010_linear_0030: - act_0030 + xi_0010_0030 = 0
C_0010_linear_0031: - act_0031 + xi_0010_0031 = 1
C_0010_linear_0032: - act_0032 + xi_0010_0032 = 0
C_0010_linear_0033: - act_0033 + xi_0010_0033 = 0
C_0010_linear_0034: - act_0034 + xi_0010_0034 = 1
C_0010_linear_0035: - act_0035 + xi_0010_0035 = 0
C_0010_linear_0036: - act_0036 + xi_0010_0036 = 0
C_0010_linear_0037: - act_0037 + xi_0010_0037 = 0
C_0010_linear_0038: - act_0038 + xi_0010_0038 = 0
C_0010_linear_0039: - act_0039 + xi_0010_0039 = 1
C_0010_loss_ge: - 10000 omg_0010 - 0.0111828930987 xi_0010_0000
 + 0.0316585861132 xi_0010_0001 + 0.000106039552982 xi_0010_0002
 + 0.2872356913 xi_0010_0003 + 0.013030358965 xi_0010_0004
 + 0.240120705533 xi_0010_0005 + 0.442580447937 xi_0010_0006
 - 0.375980671537 xi_0010_0007 + 0.392374151169 xi_0010_0008
 + 1.06701819784 xi_0010_0009 - 0.942756746323 xi_0010_0010
 + 0.412027349402 xi_0010_0011 + 0.570359951286 xi_0010_0012
 - 0.852905494999 xi_0010_0013 - 0.323418189169 xi_0010_0014
 + 0.252938924417 xi_0010_0015 - 0.0388599557068 xi_0010_0016
 - 0.020417849004 xi_0010_0017 - 0.119001175529 xi_0010_0018
 + 0.47399163059 xi_0010_0019 - 0.445604107063 xi_0010_0020
 - 0.0184582213876 xi_0010_0021 + 0.307589905785 xi_0010_0022
 + 0.444474821864 xi_0010_0023 - 0.187382383206 xi_0010_0024
 + 0.383302875585 xi_0010_0025 - 0.750161596334 xi_0010_0026
 - 1.33170117681 xi_0010_0027 + 0.0190658885385 xi_0010_0028
 - 0.745784276999 xi_0010_0029 - 0.516231038044 xi_0010_0030
 - 0.409255825925 xi_0010_0031 - 0.0994375517393 xi_0010_0032
 - 0.734256048841 xi_0010_0033 - 0.253933375138 xi_0010_0034
 - 0.256674950149 xi_0010_0035 - 0.732341101218 xi_0010_0036
 - 0.86707443001 xi_0010_0037 - 0.319117177314 xi_0010_0038
 + 0.0697086420108 xi_0010_0039 >= -9998.75705057
C_0010_loss_le: - 10000 omg_0010 - 0.0111828930987 xi_0010_0000
 + 0.0316585861132 xi_0010_0001 + 0.000106039552982 xi_0010_0002
 + 0.2872356913 xi_0010_0003 + 0.013030358965 xi_0010_0004
 + 0.240120705533 xi_0010_0005 + 0.442580447937 xi_0010_0006
 - 0.375980671537 xi_0010_0007 + 0.392374151169 xi_0010_0008
 + 1.06701819784 xi_0010_0009 - 0.942756746323 xi_0010_0010
 + 0.412027349402 xi_0010_0011 + 0.570359951286 xi_0010_0012
 - 0.852905494999 xi_0010_0013 - 0.323418189169 xi_0010_0014
 + 0.252938924417 xi_0010_0015 - 0.0388599557068 xi_0010_0016
 - 0.020417849004 xi_0010_0017 - 0.119001175529 xi_0010_0018
 + 0.47399163059 xi_0010_0019 - 0.445604107063 xi_0010_0020
 - 0.0184582213876 xi_0010_0021 + 0.307589905785 xi_0010_0022
 + 0.444474821864 xi_0010_0023 - 0.187382383206 xi_0010_0024
 + 0.383302875585 xi_0010_0025 - 0.750161596334 xi_0010_0026
 - 1.33170117681 xi_0010_0027 + 0.0190658885385 xi_0010_0028
 - 0.745784276999 xi_0010_0029 - 0.516231038044 xi_0010_0030
 - 0.409255825925 xi_0010_0031 - 0.0994375517393 xi_0010_0032
 - 0.734256048841 xi_0010_0033 - 0.253933375138 xi_0010_0034
 - 0.256674950149 xi_0010_0035 - 0.732341101218 xi_0010_0036
 - 0.86707443001 xi_0010_0037 - 0.319117177314 xi_0010_0038
 + 0.0697086420108 xi_0010_0039 <= 1.24294941651
C_0011_cost_0001: cost_0011 - 0.012149590419 pi_0001_0000
 - 0.00622719107896 pi_0001_0001 >= 0
C_0011_cost_0002: cost_0011 - 0.000246047301129 pi_0002_0000
 - 0.000236553844957 pi_0002_0001 - 0.000227062802648 pi_0002_0002
 - 0.000217574173435 pi_0002_0003 - 0.000208087956555 pi_0002_0004
 - 0.000198604151248 pi_0002_0005 - 0.000189122756757 pi_0002_0006
 - 0.000179643772329 pi_0002_0007 - 0.000170167197211 pi_0002_0008
 - 0.000160693030657 pi_0002_0009 - 0.000151221271922 pi_0002_0010
 - 0.000141751920266 pi_0002_0011 - 0.000132284974948 pi_0002_0012
 - 0.000122820435235 pi_0002_0013 - 0.000113358300394 pi_0002_0014
 - 0.000103898569696 pi_0002_0015 - 9.44412424146e-05 pi_0002_0016
 - 8.49863178277e-05 pi_0002_0017 - 7.5533795215e-05 pi_0002_0018
 - 6.60836738596e-05 pi_0002_0019 - 5.66359530478e-05 pi_0002_0020
 - 4.71906320689e-05 pi_0002_0021 - 3.7747710215e-05 pi_0002_0022
 - 2.83071867814e-05 pi_0002_0023 - 1.88690610664e-05 pi_0002_0024
 - 9.43333237113e-06 pi_0002_0025 >= 0
C_0011_cost_0003: cost_0011 >= 0
C_0011_cost_0004: cost_0011 >= 0
C_0011_cost_0005: cost_0011 >= 0
C_0011_cost_0006: cost_0011 >= 0
C_0011_cost_0007: cost_0011 >= 0
C_0011_cost_0008: cost_0011 >= 0
C_0011_cost_0009: cost_0011 >= 0
C_0011_cost_0010: cost_0011 >= 0
C_0011_cost_0011: cost_0011 >= 0
C_0011_cost_0012: cost_0011 >= 0
C_0011_cost_0013: cost_0011 >= 0
C_0011_cost_0014: cost_0011 >= 0
C_0011_cost_0015: cost_0011 >= 0
C_0011_cost_0016: cost_0011 >= 0
C_0011_cost_0017: cost_0011 >= 0
C_0011_cost_0018: cost_0011 >= 0
C_0011_cost_0019: cost_0011 >= 0
C_0011_cost_0020: cost_0011 >= 0
C_0011_cost_0021: cost_0011 >= 0
C_0011_cost_0022: cost_0011 >= 0
C_0011_cost_0023: cost_0011 >= 0
C_0011_cost_0024: cost_0011 >= 0
C_0011_cost_0025: cost_0011 >= 0
C_0011_cost_0026: cost_0011 - 0.0106666652041 pi_0026_0000 >= 0
C_0011_cost_0027: cost_0011 >= 0
C_0011_cost_0028: cost_0011 >= 0
C_0011_cost_0029: cost_0011 - 0.426666385001 pi_0029_0000 >= 0
C_0011_cost_0030: cost_0011 >= 0
C_0011_cost_0031: cost_0011 >= 0
C_0011_cost_0032: cost_0011 >= 0
C_0011_cost_0033: cost_0011 >= 0
C_0011_cost_0034: cost_0011 >= 0
C_0011_cost_0035: cost_0011 >= 0
C_0011_cost_0036: cost_0011 >= 0
C_0011_linear_0000: - act_0000 + xi_0011_0000 = 35
C_0011_linear_0001: - act_0001 + xi_0011_0001 = 47
C_0011_linear_0002: - act_0002 + xi_0011_0002 = 10722
C_0011_linear_0003: - act_0003 + xi_0011_0003 = 1
C_0011_linear_0004: - act_0004 + xi_0011_0004 = 1
C_0011_linear_0005: - act_0005 + xi_0011_0005 = 1
C_0011_linear_0006: - act_0006 + xi_0011_0006 = 0
C_0011_linear_0007: - act_0007 + xi_0011_0007 = 1
C_0011_linear_0008: - act_0008 + xi_0011_0008 = 1
C_0011_linear_0009: - act_0009 + xi_0011_0009 = 0
C_0011_linear_0010: - act_0010 + xi_0011_0010 = 0
C_0011_linear_0011: - act_0011 + xi_0011_0011 = 0
C_0011_linear_0012: - act_0012 + xi_0011_0012 = 0
C_0011_linear_0013: - act_0013 + xi_0011_0013 = 0
C_0011_linear_0014: - act_0014 + xi_0011_0014 = 1
C_0011_linear_0015: - act_0015 + xi_0011_0015 = 0
C_0011_linear_0016: - act_0016 + xi_0011_0016 = 0
C_0011_linear_0017: - act_0017 + xi_0011_0017 = 0
C_0011_linear_0018: - act_0018 + xi_0011_0018 = 0
C_0011_linear_0019: - act_0019 + xi_0011_0019 = 0
C_0011_linear_0020: - act_0020 + xi_0011_0020 = 0
C_0011_linear_0021: - act_0021 + xi_0011_0021 = 0
C_0011_linear_0022: - act_0022 + xi_0011_0022 = 0
C_0011_linear_0023: - act_0023 + xi_0011_0023 = 1
C_0011_linear_0024: - act_0024 + xi_0011_0024 = 0
C_0011_linear_0025: - act_0025 + xi_0011_0025 = 0
C_0011_linear_0026: - act_0026 + xi_0011_0026 = 0
C_0011_linear_0027: - act_0027 + xi_0011_0027 = 0
C_0011_linear_0028: - act_0028 + xi_0011_0028 = 1
C_0011_linear_0029: - act_0029 + xi_0011_0029 = 0
C_0011_linear_0030: - act_0030 + xi_0011_0030 = 0
C_0011_linear_0031: - act_0031 + xi_0011_0031 = 1
C_0011_linear_0032: - act_0032 + xi_0011_0032 = 0
C_0011_linear_0033: - act_0033 + xi_0011_0033 = 0
C_0011_linear_0034: - act_0034 + xi_0011_0034 = 1
C_0011_linear_0035: - act_0035 + xi_0011_0035 = 0
C_0011_linear_0036: - act_0036 + xi_0011_0036 = 0
C_0011_linear_0037: - act_0037 + xi_0011_0037 = 0
C_0011_linear_0038: - act_0038 + xi_0011_0038 = 0
C_0011_linear_0039: - act_0039 + xi_0011_0039 = 0
C_0011_loss_ge: - 10000 omg_0011 - 0.0111828930987 xi_0011_0000
 + 0.0316585861132 xi_0011_0001 + 0.000106039552982 xi_0011_0002
 + 0.2872356913 xi_0011_0003 + 0.013030358965 xi_0011_0004
 + 0.240120705533 xi_0011_0005 + 0.442580447937 xi_0011_0006
 - 0.375980671537 xi_0011_0007 + 0.392374151169 xi_0011_0008
 + 1.06701819784 xi_0011_0009 - 0.942756746323 xi_0011_0010
 + 0.412027349402 xi_0011_0011 + 0.570359951286 xi_0011_0012
 - 0.852905494999 xi_0011_0013 - 0.323418189169 xi_0011_0014
 + 0.252938924417 xi_0011_0015 - 0.0388599557068 xi_0011_0016
 - 0.020417849004 xi_0011_0017 - 0.119001175529 xi_0011_0018
 + 0.47399163059 xi_0011_0019 - 0.445604107063 xi_0011_0020
 - 0.0184582213876 xi_0011_0021 + 0.307589905785 xi_0011_0022
 + 0.444474821864 xi_0011_0023 - 0.187382383206 xi_0011_0024
 + 0.383302875585 xi_0011_0025 - 0.750161596334 xi_0011_0026
 - 1.33170117681 xi_0011_0027 + 0.0190658885385 xi_0011_0028
 - 0.745784276999 xi_0011_0029 - 0.516231038044 xi_0011_0030
 - 0.409255825925 xi_0011_0031 - 0.0994375517393 xi_0011_0032
 - 0.734256048841 xi_0011_0033 - 0.253933375138 xi_0011_0034
 - 0.256674950149 xi_0011_0035 - 0.732341101218 xi_0011_0036
 - 0.86707443001 xi_0011_0037 - 0.319117177314 xi_0011_0038
 + 0.0697086420108 xi_0011_0039 >= -9998.75705057
C_0011_loss_le: - 10000 omg_0011 - 0.0111828930987 xi_0011_0000
 + 0.0316585861132 xi_0011_0001 + 0.000106039552982 xi_0011_0002
 + 0.2872356913 xi_0011_0003 + 0.013030358965 xi_0011_0004
 + 0.240120705533 xi_0011_0005 + 0.442580447937 xi_0011_0006
 - 0.375980671537 xi_0011_0007 + 0.392374151169 xi_0011_0008
 + 1.06701819784 xi_0011_0009 - 0.942756746323 xi_0011_0010
 + 0.412027349402 xi_0011_0011 + 0.570359951286 xi_0011_0012
 - 0.852905494999 xi_0011_0013 - 0.323418189169 xi_0011_0014
 + 0.252938924417 xi_0011_0015 - 0.0388599557068 xi_0011_0016
 - 0.020417849004 xi_0011_0017 - 0.119001175529 xi_0011_0018
 + 0.47399163059 xi_0011_0019 - 0.445604107063 xi_0011_0020
 - 0.0184582213876 xi_0011_0021 + 0.307589905785 xi_0011_0022
 + 0.444474821864 xi_0011_0023 - 0.187382383206 xi_0011_0024
 + 0.383302875585 xi_0011_0025 - 0.750161596334 xi_0011_0026
 - 1.33170117681 xi_0011_0027 + 0.0190658885385 xi_0011_0028
 - 0.745784276999 xi_0011_0029 - 0.516231038044 xi_0011_0030
 - 0.409255825925 xi_0011_0031 - 0.0994375517393 xi_0011_0032
 - 0.734256048841 xi_0011_0033 - 0.253933375138 xi_0011_0034
 - 0.256674950149 xi_0011_0035 - 0.732341101218 xi_0011_0036
 - 0.86707443001 xi_0011_0037 - 0.319117177314 xi_0011_0038
 + 0.0697086420108 xi_0011_0039 <= 1.24294941651
C_0012_cost_0001: cost_0012 - 0.0109361010253 pi_0001_0000
 - 0.00508688801619 pi_0001_0001 >= 0
C_0012_cost_0002: cost_0012 - 0.00270005670067 pi_0002_0000
 - 0.00259547759471 pi_0002_0001 - 0.00249095710915 pi_0002_0002
 - 0.00238649522423 pi_0002_0003 - 0.00228209192014 pi_0002_0004
 - 0.00217774717711 pi_0002_0005 - 0.00207346097532 pi_0002_0006
 - 0.00196923329494 pi_0002_0007 - 0.00186506411616 pi_0002_0008
 - 0.00176095341914 pi_0002_0009 - 0.00165690118401 pi_0002_0010
 - 0.00155290739093 pi_0002_0011 - 0.00144897202001 pi_0002_0012
 - 0.00134509505138 pi_0002_0013 - 0.00124127646514 pi_0002_0014
 - 0.00113751624138 pi_0002_0015 - 0.0010338143602 pi_0002_0016
 - 0.000930170801653 pi_0002_0017 - 0.000826585545809 pi_0002_0018
 - 0.000723058572719 pi_0002_0019 - 0.00061958986242 pi_0002_0020
 - 0.000516179394939 pi_0002_0021 - 0.000412827150295 pi_0002_0022
 - 0.00030953310849 pi_0002_0023 - 0.00020629724952 pi_0002_0024
 - 0.000103119553366 pi_0002_0025 >= 0
C_0012_cost_0003: cost_0012 >= 0
C_0012_cost_0004: cost_0012 >= 0
C_0012_cost_0005: cost_0012 >= 0
C_0012_cost_0006: cost_0012 >= 0
C_0012_cost_0007: cost_0012 >= 0
C_0012_cost_0008: cost_0012 >= 0
C_0012_cost_0009: cost_0012 >= 0
C_0012_cost_0010: cost_0012 >= 0
C_0012_cost_0011: cost_0012 >= 0
C_0012_cost_0012: cost_0012 >= 0
C_0012_cost_0013: cost_0012 >= 0
C_0012_cost_0014: cost_0012 >= 0
C_0012_cost_0015: cost_0012 >= 0
C_0012_cost_0016: cost_0012 >= 0
C_0012_cost_0017: cost_0012 >= 0
C_0012_cost_0018: cost_0012 >= 0
C_0012_cost_0019: cost_0012 >= 0
C_0012_cost_0020: cost_0012 >= 0
C_0012_cost_0021: cost_0012 >= 0
C_0012_cost_0022: cost_0012 >= 0
C_0012_cost_0023: cost_0012 >= 0
C_0012_cost_0024: cost_0012 >= 0
C_0012_cost_0025: cost_0012 >= 0
C_0012_cost_0026: cost_0012 - 0.0106666652041 pi_0026_0000 >= 0
C_0012_cost_0027: cost_0012 >= 0
C_0012_cost_0028: cost_0012 >= 0
C_0012_cost_0029: cost_0012 - 0.426666385001 pi_0029_0000 >= 0
C_0012_cost_0030: cost_0012 >= 0
C_0012_cost_0031: cost_0012 >= 0
C_0012_cost_0032: cost_0012 >= 0
C_0012_cost_0033: cost_0012 >= 0
C_0012_cost_0034: cost_0012 >= 0
C_0012_cost_0035: cost_0012 >= 0
C_0012_cost_0036: cost_0012 >= 0
C_0012_linear_0000: - act_0000 + xi_0012_0000 = 34
C_0012_linear_0001: - act_0001 + xi_0012_0001 = 42
C_0012_linear_0002: - act_0002 + xi_0012_0002 = 3965
C_0012_linear_0003: - act_0003 + xi_0012_0003 = 4
C_0012_linear_0004: - act_0004 + xi_0012_0004 = 3
C_0012_linear_0005: - act_0005 + xi_0012_0005 = 1
C_0012_linear_0006: - act_0006 + xi_0012_0006 = 0
C_0012_linear_0007: - act_0007 + xi_0012_0007 = 0
C_0012_linear_0008: - act_0008 + xi_0012_0008 = 1
C_0012_linear_0009: - act_0009 + xi_0012_0009 = 0
C_0012_linear_0010: - act_0010 + xi_0012_0010 = 0
C_0012_linear_0011: - act_0011 + xi_0012_0011 = 0
C_0012_linear_0012: - act_0012 + xi_0012_0012 = 0
C_0012_linear_0013: - act_0013 + xi_0012_0013 = 0
C_0012_linear_0014: - act_0014 + xi_0012_0014 = 1
C_0012_linear_0015: - act_0015 + xi_0012_0015 = 0
C_0012_linear_0016: - act_0016 + xi_0012_0016 = 0
C_0012_linear_0017: - act_0017 + xi_0012_0017 = 1
C_0012_linear_0018: - act_0018 + xi_0012_0018 = 0
C_0012_linear_0019: - act_0019 + xi_0012_0019 = 0
C_0012_linear_0020: - act_0020 + xi_0012_0020 = 1
C_0012_linear_0021: - act_0021 + xi_0012_0021 = 0
C_0012_linear_0022: - act_0022 + xi_0012_0022 = 0
C_0012_linear_0023: - act_0023 + xi_0012_0023 = 0
C_0012_linear_0024: - act_0024 + xi_0012_0024 = 0
C_0012_linear_0025: - act_0025 + xi_0012_0025 = 0
C_0012_linear_0026: - act_0026 + xi_0012_0026 = 0
C_0012_linear_0027: - act_0027 + xi_0012_0027 = 0
C_0012_linear_0028: - act_0028 + xi_0012_0028 = 1
C_0012_linear_0029: - act_0029 + xi_0012_0029 = 0
C_0012_linear_0030: - act_0030 + xi_0012_0030 = 0
C_0012_linear_0031: - act_0031 + xi_0012_0031 = 1
C_0012_linear_0032: - act_0032 + xi_0012_0032 = 0
C_0012_linear_0033: - act_0033 + xi_0012_0033 = 0
C_0012_linear_0034: - act_0034 + xi_0012_0034 = 1
C_0012_linear_0035: - act_0035 + xi_0012_0035 = 0
C_0012_linear_0036: - act_0036 + xi_0012_0036 = 0
C_0012_linear_0037: - act_0037 + xi_0012_0037 = 0
C_0012_linear_0038: - act_0038 + xi_0012_0038 = 1
C_0012_linear_0039: - act_0039 + xi_0012_0039 = 1
C_0012_loss_ge: - 10000 omg_0012 - 0.0111828930987 xi_0012_0000
 + 0.0316585861132 xi_0012_0001 + 0.000106039552982 xi_0012_0002
 + 0.2872356913 xi_0012_0003 + 0.013030358965 xi_0012_0004
 + 0.240120705533 xi_0012_0005 + 0.442580447937 xi_0012_0006
 - 0.375980671537 xi_0012_0007 + 0.392374151169 xi_0012_0008
 + 1.06701819784 xi_0012_0009 - 0.942756746323 xi_0012_0010
 + 0.412027349402 xi_0012_0011 + 0.570359951286 xi_0012_0012
 - 0.852905494999 xi_0012_0013 - 0.323418189169 xi_0012_0014
 + 0.252938924417 xi_0012_0015 - 0.0388599557068 xi_0012_0016
 - 0.020417849004 xi_0012_0017 - 0.119001175529 xi_0012_0018
 + 0.47399163059 xi_0012_0019 - 0.445604107063 xi_0012_0020
 - 0.0184582213876 xi_0012_0021 + 0.307589905785 xi_0012_0022
 + 0.444474821864 xi_0012_0023 - 0.187382383206 xi_0012_0024
 + 0.383302875585 xi_0012_0025 - 0.750161596334 xi_0012_0026
 - 1.33170117681 xi_0012_0027 + 0.0190658885385 xi_0012_0028
 - 0.745784276999 xi_0012_0029 - 0.516231038044 xi_0012_0030
 - 0.409255825925 xi_0012_0031 - 0.0994375517393 xi_0012_0032
 - 0.734256048841 xi_0012_0033 - 0.253933375138 xi_0012_0034
 - 0.256674950149 xi_0012_0035 - 0.732341101218 xi_0012_0036
 - 0.86707443001 xi_0012_0037 - 0.319117177314 xi_0012_0038
 + 0.0697086420108 xi_0012_0039 >= -9998.75705057
C_0012_loss_le: - 10000 omg_0012 - 0.0111828930987 xi_0012_0000
 + 0.0316585861132 xi_0012_0001 + 0.000106039552982 xi_0012_0002
 + 0.2872356913 xi_0012_0003 + 0.013030358965 xi_0012_0004
 + 0.240120705533 xi_0012_0005 + 0.442580447937 xi_0012_0006
 - 0.375980671537 xi_0012_0007 + 0.392374151169 xi_0012_0008
 + 1.06701819784 xi_0012_0009 - 0.942756746323 xi_0012_0010
 + 0.412027349402 xi_0012_0011 + 0.570359951286 xi_0012_0012
 - 0.852905494999 xi_0012_0013 - 0.323418189169 xi_0012_0014
 + 0.252938924417 xi_0012_0015 - 0.0388599557068 xi_0012_0016
 - 0.020417849004 xi_0012_0017 - 0.119001175529 xi_0012_0018
 + 0.47399163059 xi_0012_0019 - 0.445604107063 xi_0012_0020
 - 0.0184582213876 xi_0012_0021 + 0.307589905785 xi_0012_0022
 + 0.444474821864 xi_0012_0023 - 0.187382383206 xi_0012_0024
 + 0.383302875585 xi_0012_0025 - 0.750161596334 xi_0012_0026
 - 1.33170117681 xi_0012_0027 + 0.0190658885385 xi_0012_0028
 - 0.745784276999 xi_0012_0029 - 0.516231038044 xi_0012_0030
 - 0.409255825925 xi_0012_0031 - 0.0994375517393 xi_0012_0032
 - 0.734256048841 xi_0012_0033 - 0.253933375138 xi_0012_0034
 - 0.256674950149 xi_0012_0035 - 0.732341101218 xi_0012_0036
 - 0.86707443001 xi_0012_0037 - 0.319117177314 xi_0012_0038
 + 0.0697086420108 xi_0012_0039 <= 1.24294941651
C_0013_cost_0001: cost_0013 - 0.0653909198978 pi_0001_0000
 - 0.0317669758175 pi_0001_0001 >= 0
C_0013_cost_0002: cost_0013 - 0.00652967135261 pi_0002_0000
 - 0.00627791186683 pi_0002_0001 - 0.00602620087592 pi_0002_0002
 - 0.00577453850218 pi_0002_0003 - 0.00552292486769 pi_0002_0004
 - 0.00527136009429 pi_0002_0005 - 0.00501984430356 pi_0002_0006
 - 0.00476837761688 pi_0002_0007 - 0.00451696015536 pi_0002_0008
 - 0.00426559203989 pi_0002_0009 - 0.00401427339111 pi_0002_0010
 - 0.00376300432941 pi_0002_0011 - 0.00351178497498 pi_0002_0012
 - 0.00326061544774 pi_0002_0013 - 0.00300949586736 pi_0002_0014
 - 0.00275842635332 pi_0002_0015 - 0.00250740702481 pi_0002_0016
 - 0.00225643800082 pi_0002_0017 - 0.00200551940006 pi_0002_0018
 - 0.00175465134105 pi_0002_0019 - 0.00150383394203 pi_0002_0020
 - 0.00125306732102 pi_0002_0021 - 0.00100235159579 pi_0002_0022
 - 0.000751686883902 pi_0002_0023 - 0.000501073302638 pi_0002_0024
 - 0.000250510969063 pi_0002_0025 >= 0
C_0013_cost_0003: cost_0013 >= 0
C_0013_cost_0004: cost_0013 >= 0
C_0013_cost_0005: cost_0013 >= 0
C_0013_cost_0006: cost_0013 >= 0
C_0013_cost_0007: cost_0013 >= 0
C_0013_cost_0008: cost_0013 >= 0
C_0013_cost_0009: cost_0013 >= 0
C_0013_cost_0010: cost_0013 >= 0
C_0013_cost_0011: cost_0013 >= 0
C_0013_cost_0012: cost_0013 >= 0
C_0013_cost_0013: cost_0013 >= 0
C_0013_cost_0014: cost_0013 >= 0
C_0013_cost_0015: cost_0013 >= 0
C_0013_cost_0016: cost_0013 >= 0
C_0013_cost_0017: cost_0013 >= 0
C_0013_cost_0018: cost_0013 >= 0
C_0013_cost_0019: cost_0013 >= 0
C_0013_cost_0020: cost_0013 >= 0
C_0013_cost_0021: cost_0013 >= 0
C_0013_cost_0022: cost_0013 >= 0
C_0013_cost_0023: cost_0013 >= 0
C_0013_cost_0024: cost_0013 >= 0
C_0013_cost_0025: cost_0013 >= 0
C_0013_cost_0026: cost_0013 - 0.0106666652041 pi_0026_0000 >= 0
C_0013_cost_0027: cost_0013 >= 0
C_0013_cost_0028: cost_0013 >= 0
C_0013_cost_0029: cost_0013 - 0.426666385001 pi_0029_0000 >= 0
C_0013_cost_0030: cost_0013 >= 0
C_0013_cost_0031: cost_0013 >= 0
C_0013_cost_0032: cost_0013 >= 0
C_0013_cost_0033: cost_0013 >= 0
C_0013_cost_0034: cost_0013 >= 0
C_0013_cost_0035: cost_0013 >= 0
C_0013_cost_0036: cost_0013 >= 0
C_0013_linear_0000: - act_0000 + xi_0013_0000 = 27
C_0013_linear_0001: - act_0001 + xi_0013_0001 = 18
C_0013_linear_0002: - act_0002 + xi_0013_0002 = 1924
C_0013_linear_0003: - act_0003 + xi_0013_0003 = 4
C_0013_linear_0004: - act_0004 + xi_0013_0004 = 3
C_0013_linear_0005: - act_0005 + xi_0013_0005 = 1
C_0013_linear_0006: - act_0006 + xi_0013_0006 = 0
C_0013_linear_0007: - act_0007 + xi_0013_0007 = 0
C_0013_linear_0008: - act_0008 + xi_0013_0008 = 1
C_0013_linear_0009: - act_0009 + xi_0013_0009 = 0
C_0013_linear_0010: - act_0010 + xi_0013_0010 = 0
C_0013_linear_0011: - act_0011 + xi_0013_0011 = 0
C_0013_linear_0012: - act_0012 + xi_0013_0012 = 0
C_0013_linear_0013: - act_0013 + xi_0013_0013 = 0
C_0013_linear_0014: - act_0014 + xi_0013_0014 = 0
C_0013_linear_0015: - act_0015 + xi_0013_0015 = 1
C_0013_linear_0016: - act_0016 + xi_0013_0016 = 0
C_0013_linear_0017: - act_0017 + xi_0013_0017 = 1
C_0013_linear_0018: - act_0018 + xi_0013_0018 = 0
C_0013_linear_0019: - act_0019 + xi_0013_0019 = 0
C_0013_linear_0020: - act_0020 + xi_0013_0020 = 0
C_0013_linear_0021: - act_0021 + xi_0013_0021 = 1
C_0013_linear_0022: - act_0022 + xi_0013_0022 = 0
C_0013_linear_0023: - act_0023 + xi_0013_0023 = 0
C_0013_linear_0024: - act_0024 + xi_0013_0024 = 0
C_0013_linear_0025: - act_0025 + xi_0013_0025 = 0
C_0013_linear_0026: - act_0026 + xi_0013_0026 = 0
C_0013_linear_0027: - act_0027 + xi_0013_0027 = 0
C_0013_linear_0028: - act_0028 + xi_0013_0028 = 1
C_0013_linear_0029: - act_0029 + xi_0013_0029 = 0
C_0013_linear_0030: - act_0030 + xi_0013_0030 = 0
C_0013_linear_0031: - act_0031 + xi_0013_0031 = 0
C_0013_linear_0032: - act_0032 + xi_0013_0032 = 1
C_0013_linear_0033: - act_0033 + xi_0013_0033 = 0
C_0013_linear_0034: - act_0034 + xi_0013_0034 = 1
C_0013_linear_0035: - act_0035 + xi_0013_0035 = 0
C_0013_linear_0036: - act_0036 + xi_0013_0036 = 0
C_0013_linear_0037: - act_0037 + xi_0013_0037 = 0
C_0013_linear_0038: - act_0038 + xi_0013_0038 = 0
C_0013_linear_0039: - act_0039 + xi_0013_0039 = 0
C_0013_loss_ge: - 10000 omg_0013 - 0.0111828930987 xi_0013_0000
 + 0.0316585861132 xi_0013_0001 + 0.000106039552982 xi_0013_0002
 + 0.2872356913 xi_0013_0003 + 0.013030358965 xi_0013_0004
 + 0.240120705533 xi_0013_0005 + 0.442580447937 xi_0013_0006
 - 0.375980671537 xi_0013_0007 + 0.392374151169 xi_0013_0008
 + 1.06701819784 xi_0013_0009 - 0.942756746323 xi_0013_0010
 + 0.412027349402 xi_0013_0011 + 0.570359951286 xi_0013_0012
 - 0.852905494999 xi_0013_0013 - 0.323418189169 xi_0013_0014
 + 0.252938924417 xi_0013_0015 - 0.0388599557068 xi_0013_0016
 - 0.020417849004 xi_0013_0017 - 0.119001175529 xi_0013_0018
 + 0.47399163059 xi_0013_0019 - 0.445604107063 xi_0013_0020
 - 0.0184582213876 xi_0013_0021 + 0.307589905785 xi_0013_0022
 + 0.444474821864 xi_0013_0023 - 0.187382383206 xi_0013_0024
 + 0.383302875585 xi_0013_0025 - 0.750161596334 xi_0013_0026
 - 1.33170117681 xi_0013_0027 + 0.0190658885385 xi_0013_0028
 - 0.745784276999 xi_0013_0029 - 0.516231038044 xi_0013_0030
 - 0.409255825925 xi_0013_0031 - 0.0994375517393 xi_0013_0032
 - 0.734256048841 xi_0013_0033 - 0.253933375138 xi_0013_0034
 - 0.256674950149 xi_0013_0035 - 0.732341101218 xi_0013_0036
 - 0.86707443001 xi_0013_0037 - 0.319117177314 xi_0013_0038
 + 0.0697086420108 xi_0013_0039 >= -9998.75705057
C_0013_loss_le: - 10000 omg_0013 - 0.0111828930987 xi_0013_0000
 + 0.0316585861132 xi_0013_0001 + 0.000106039552982 xi_0013_0002
 + 0.2872356913 xi_0013_0003 + 0.013030358965 xi_0013_0004
 + 0.240120705533 xi_0013_0005 + 0.442580447937 xi_0013_0006
 - 0.375980671537 xi_0013_0007 + 0.392374151169 xi_0013_0008
 + 1.06701819784 xi_0013_0009 - 0.942756746323 xi_0013_0010
 + 0.412027349402 xi_0013_0011 + 0.570359951286 xi_0013_0012
 - 0.852905494999 xi_0013_0013 - 0.323418189169 xi_0013_0014
 + 0.252938924417 xi_0013_0015 - 0.0388599557068 xi_0013_0016
 - 0.020417849004 xi_0013_0017 - 0.119001175529 xi_0013_0018
 + 0.47399163059 xi_0013_0019 - 0.445604107063 xi_0013_0020
 - 0.0184582213876 xi_0013_0021 + 0.307589905785 xi_0013_0022
 + 0.444474821864 xi_0013_0023 - 0.187382383206 xi_0013_0024
 + 0.383302875585 xi_0013_0025 - 0.750161596334 xi_0013_0026
 - 1.33170117681 xi_0013_0027 + 0.0190658885385 xi_0013_0028
 - 0.745784276999 xi_0013_0029 - 0.516231038044 xi_0013_0030
 - 0.409255825925 xi_0013_0031 - 0.0994375517393 xi_0013_0032
 - 0.734256048841 xi_0013_0033 - 0.253933375138 xi_0013_0034
 - 0.256674950149 xi_0013_0035 - 0.732341101218 xi_0013_0036
 - 0.86707443001 xi_0013_0037 - 0.319117177314 xi_0013_0038
 + 0.0697086420108 xi_0013_0039 <= 1.24294941651
C_0014_cost_0001: cost_0014 - 0.0809651761744 pi_0001_0000
 - 0.0391052057863 pi_0001_0001 >= 0
C_0014_cost_0002: cost_0014 - 0.00647528134997 pi_0002_0000
 - 0.00622707185087 pi_0002_0001 - 0.00597879352137 pi_0002_0002
 - 0.00573044656712 pi_0002_0003 - 0.0054820311938 pi_0002_0004
 - 0.00523354760716 pi_0002_0005 - 0.004984996013 pi_0002_0006
 - 0.00473637661721 pi_0002_0007 - 0.0044876896257 pi_0002_0008
 - 0.00423893524446 pi_0002_0009 - 0.00399011367953 pi_0002_0010
 - 0.00374122513701 pi_0002_0011 - 0.00349226982306 pi_0002_0012
 - 0.00324324794388 pi_0002_0013 - 0.00299415970575 pi_0002_0014
 - 0.00274500531497 pi_0002_0015 - 0.00249578497792 pi_0002_0016
 - 0.00224649890102 pi_0002_0017 - 0.00199714729074 pi_0002_0018
 - 0.0017477303536 pi_0002_0019 - 0.00149824829618 pi_0002_0020
 - 0.00124870132511 pi_0002_0021 - 0.000999089647049 pi_0002_0022
 - 0.000749413468719 pi_0002_0023 - 0.000499672996886 pi_0002_0024
 - 0.00024986843836 pi_0002_0025 >= 0
C_0014_cost_0003: cost_0014 >= 0
C_0014_cost_0004: cost_0014 >= 0
C_0014_cost_0005: cost_0014 >= 0
C_0014_cost_0006: cost_0014 >= 0
C_0014_cost_0007: cost_0014 >= 0
C_0014_cost_0008: cost_0014 >= 0
C_0014_cost_0009: cost_0014 >= 0
C_0014_cost_0010: cost_0014 >= 0
C_0014_cost_0011: cost_0014 >= 0
C_0014_cost_0012: cost_0014 >= 0
C_0014_cost_0013: cost_0014 >= 0
C_0014_cost_0014: cost_0014 >= 0
C_0014_cost_0015: cost_0014 >= 0
C_0014_cost_0016: cost_0014 >= 0
C_0014_cost_0017: cost_0014 >= 0
C_0014_cost_0018: cost_0014 >= 0
C_0014_cost_0019: cost_0014 >= 0
C_0014_cost_0020: cost_0014 >= 0
C_0014_cost_0021: cost_0014 >= 0
C_0014_cost_0022: cost_0014 >= 0
C_0014_cost_0023: cost_0014 >= 0
C_0014_cost_0024: cost_0014 >= 0
C_0014_cost_0025: cost_0014 >= 0
C_0014_cost_0026: cost_0014 - 0.0106666652041 pi_0026_0000 >= 0
C_0014_cost_0027: cost_0014 >= 0
C_0014_cost_0028: cost_0014 >= 0
C_0014_cost_0029: cost_0014 - 0.426666385001 pi_0029_0000 >= 0
C_0014_cost_0030: cost_0014 >= 0
C_0014_cost_0031: cost_0014 >= 0
C_0014_cost_0032: cost_0014 >= 0
C_0014_cost_0033: cost_0014 >= 0
C_0014_cost_0034: cost_0014 >= 0
C_0014_cost_0035: cost_0014 >= 0
C_0014_cost_0036: cost_0014 >= 0
C_0014_linear_0000: - act_0000 + xi_0014_0000 = 24
C_0014_linear_0001: - act_0001 + xi_0014_0001 = 15
C_0014_linear_0002: - act_0002 + xi_0014_0002 = 1275
C_0014_linear_0003: - act_0003 + xi_0014_0003 = 4
C_0014_linear_0004: - act_0004 + xi_0014_0004 = 2
C_0014_linear_0005: - act_0005 + xi_0014_0005 = 1
C_0014_linear_0006: - act_0006 + xi_0014_0006 = 0
C_0014_linear_0007: - act_0007 + xi_0014_0007 = 0
C_0014_linear_0008: - act_0008 + xi_0014_0008 = 1
C_0014_linear_0009: - act_0009 + xi_0014_0009 = 0
C_0014_linear_0010: - act_0010 + xi_0014_0010 = 0
C_0014_linear_0011: - act_0011 + xi_0014_0011 = 0
C_0014_linear_0012: - act_0012 + xi_0014_0012 = 0
C_0014_linear_0013: - act_0013 + xi_0014_0013 = 0
C_0014_linear_0014: - act_0014 + xi_0014_0014 = 0
C_0014_linear_0015: - act_0015 + xi_0014_0015 = 1
C_0014_linear_0016: - act_0016 + xi_0014_0016 = 0
C_0014_linear_0017: - act_0017 + xi_0014_0017 = 1
C_0014_linear_0018: - act_0018 + xi_0014_0018 = 0
C_0014_linear_0019: - act_0019 + xi_0014_0019 = 0
C_0014_linear_0020: - act_0020 + xi_0014_0020 = 0
C_0014_linear_0021: - act_0021 + xi_0014_0021 = 0
C_0014_linear_0022: - act_0022 + xi_0014_0022 = 1
C_0014_linear_0023: - act_0023 + xi_0014_0023 = 0
C_0014_linear_0024: - act_0024 + xi_0014_0024 = 0
C_0014_linear_0025: - act_0025 + xi_0014_0025 = 0
C_0014_linear_0026: - act_0026 + xi_0014_0026 = 0
C_0014_linear_0027: - act_0027 + xi_0014_0027 = 0
C_0014_linear_0028: - act_0028 + xi_0014_0028 = 0
C_0014_linear_0029: - act_0029 + xi_0014_0029 = 0
C_0014_linear_0030: - act_0030 + xi_0014_0030 = 1
C_0014_linear_0031: - act_0031 + xi_0014_0031 = 1
C_0014_linear_0032: - act_0032 + xi_0014_0032 = 0
C_0014_linear_0033: - act_0033 + xi_0014_0033 = 0
C_0014_linear_0034: - act_0034 + xi_0014_0034 = 1
C_0014_linear_0035: - act_0035 + xi_0014_0035 = 0
C_0014_linear_0036: - act_0036 + xi_0014_0036 = 0
C_0014_linear_0037: - act_0037 + xi_0014_0037 = 0
C_0014_linear_0038: - act_0038 + xi_0014_0038 = 0
C_0014_linear_0039: - act_0039 + xi_0014_0039 = 0
C_0014_loss_ge: - 10000 omg_0014 - 0.0111828930987 xi_0014_0000
 + 0.0316585861132 xi_0014_0001 + 0.000106039552982 xi_0014_0002
 + 0.2872356913 xi_0014_0003 + 0.013030358965 xi_0014_0004
 + 0.240120705533 xi_0014_0005 + 0.442580447937 xi_0014_0006
 - 0.375980671537 xi_0014_0007 + 0.392374151169 xi_0014_0008
 + 1.06701819784 xi_0014_0009 - 0.942756746323 xi_0014_0010
 + 0.412027349402 xi_0014_0011 + 0.570359951286 xi_0014_0012
 - 0.852905494999 xi_0014_0013 - 0.323418189169 xi_0014_0014
 + 0.252938924417 xi_0014_0015 - 0.0388599557068 xi_0014_0016
 - 0.020417849004 xi_0014_0017 - 0.119001175529 xi_0014_0018
 + 0.47399163059 xi_0014_0019 - 0.445604107063 xi_0014_0020
 - 0.0184582213876 xi_0014_0021 + 0.307589905785 xi_0014_0022
 + 0.444474821864 xi_0014_0023 - 0.187382383206 xi_0014_0024
 + 0.383302875585 xi_0014_0025 - 0.750161596334 xi_0014_0026
 - 1.33170117681 xi_0014_0027 + 0.0190658885385 xi_0014_0028
 - 0.745784276999 xi_0014_0029 - 0.516231038044 xi_0014_0030
 - 0.409255825925 xi_0014_0031 - 0.0994375517393 xi_0014_0032
 - 0.734256048841 xi_0014_0033 - 0.253933375138 xi_0014_0034
 - 0.256674950149 xi_0014_0035 - 0.732341101218 xi_0014_0036
 - 0.86707443001 xi_0014_0037 - 0.319117177314 xi_0014_0038
 + 0.0697086420108 xi_0014_0039 >= -9998.75705057
C_0014_loss_le: - 10000 omg_0014 - 0.0111828930987 xi_0014_0000
 + 0.0316585861132 xi_0014_0001 + 0.000106039552982 xi_0014_0002
 + 0.2872356913 xi_0014_0003 + 0.013030358965 xi_0014_0004
 + 0.240120705533 xi_0014_0005 + 0.442580447937 xi_0014_0006
 - 0.375980671537 xi_0014_0007 + 0.392374151169 xi_0014_0008
 + 1.06701819784 xi_0014_0009 - 0.942756746323 xi_0014_0010
 + 0.412027349402 xi_0014_0011 + 0.570359951286 xi_0014_0012
 - 0.852905494999 xi_0014_0013 - 0.323418189169 xi_0014_0014
 + 0.252938924417 xi_0014_0015 - 0.0388599557068 xi_0014_0016
 - 0.020417849004 xi_0014_0017 - 0.119001175529 xi_0014_0018
 + 0.47399163059 xi_0014_0019 - 0.445604107063 xi_0014_0020
 - 0.0184582213876 xi_0014_0021 + 0.307589905785 xi_0014_0022
 + 0.444474821864 xi_0014_0023 - 0.187382383206 xi_0014_0024
 + 0.383302875585 xi_0014_0025 - 0.750161596334 xi_0014_0026
 - 1.33170117681 xi_0014_0027 + 0.0190658885385 xi_0014_0028
 - 0.745784276999 xi_0014_0029 - 0.516231038044 xi_0014_0030
 - 0.409255825925 xi_0014_0031 - 0.0994375517393 xi_0014_0032
 - 0.734256048841 xi_0014_0033 - 0.253933375138 xi_0014_0034
 - 0.256674950149 xi_0014_0035 - 0.732341101218 xi_0014_0036
 - 0.86707443001 xi_0014_0037 - 0.319117177314 xi_0014_0038
 + 0.0697086420108 xi_0014_0039 <= 1.24294941651
C_0015_cost_0001: cost_0015 - 0.0809651761744 pi_0001_0000
 - 0.0391052057863 pi_0001_0001 >= 0
C_0015_cost_0002: cost_0015 - 0.00668292591843 pi_0002_0000
 - 0.0064255232159 pi_0002_0001 - 0.00616814864336 pi_0002_0002
 - 0.00591080235671 pi_0002_0003 - 0.00565348451165 pi_0002_0004
 - 0.00539619526365 pi_0002_0005 - 0.00513893476797 pi_0002_0006
 - 0.00488170317965 pi_0002_0007 - 0.00462450065351 pi_0002_0008
 - 0.00436732734414 pi_0002_0009 - 0.00411018340594 pi_0002_0010
 - 0.00385306899307 pi_0002_0011 - 0.00359598425948 pi_0002_0012
 - 0.00333892935889 pi_0002_0013 - 0.00308190444481 pi_0002_0014
 - 0.00282490967054 pi_0002_0015 - 0.00256794518912 pi_0002_0016
 - 0.00231101115343 pi_0002_0017 - 0.00205410771608 pi_0002_0018
 - 0.00179723502948 pi_0002_0019 - 0.00154039324581 pi_0002_0020
 - 0.00128358251704 pi_0002_0021 - 0.00102680299492 pi_0002_0022
 - 0.000770054830968 pi_0002_0023 - 0.000513338176481 pi_0002_0024
 - 0.00025665318254 pi_0002_0025 >= 0
C_0015_cost_0003: cost_0015 >= 0
C_0015_cost_0004: cost_0015 >= 0
C_0015_cost_0005: cost_0015 >= 0
C_0015_cost_0006: cost_0015 >= 0
C_0015_cost_0007: cost_0015 >= 0
C_0015_cost_0008: cost_0015 >= 0
C_0015_cost_0009: cost_0015 >= 0
C_0015_cost_0010: cost_0015 >= 0
C_0015_cost_0011: cost_0015 >= 0
C_0015_cost_0012: cost_0015 >= 0
C_0015_cost_0013: cost_0015 >= 0
C_0015_cost_0014: cost_0015 >= 0
C_0015_cost_0015: cost_0015 >= 0
C_0015_cost_0016: cost_0015 >= 0
C_0015_cost_0017: cost_0015 >= 0
C_0015_cost_0018: cost_0015 >= 0
C_0015_cost_0019: cost_0015 >= 0
C_0015_cost_0020: cost_0015 >= 0
C_0015_cost_0021: cost_0015 >= 0
C_0015_cost_0022: cost_0015 >= 0
C_0015_cost_0023: cost_0015 >= 0
C_0015_cost_0024: cost_0015 >= 0
C_0015_cost_0025: cost_0015 >= 0
C_0015_cost_0026: cost_0015 - 0.0106666652041 pi_0026_0000 >= 0
C_0015_cost_0027: cost_0015 >= 0
C_0015_cost_0028: cost_0015 >= 0
C_0015_cost_0029: cost_0015 - 0.426666385001 pi_0029_0000 >= 0
C_0015_cost_0030: cost_0015 >= 0
C_0015_cost_0031: cost_0015 >= 0
C_0015_cost_0032: cost_0015 >= 0
C_0015_cost_0033: cost_0015 >= 0
C_0015_cost_0034: cost_0015 >= 0
C_0015_cost_0035: cost_0015 >= 0
C_0015_cost_0036: cost_0015 >= 0
C_0015_linear_0000: - act_0000 + xi_0015_0000 = 26
C_0015_linear_0001: - act_0001 + xi_0015_0001 = 15
C_0015_linear_0002: - act_0002 + xi_0015_0002 = 1778
C_0015_linear_0003: - act_0003 + xi_0015_0003 = 2
C_0015_linear_0004: - act_0004 + xi_0015_0004 = 1
C_0015_linear_0005: - act_0005 + xi_0015_0005 = 2
C_0015_linear_0006: - act_0006 + xi_0015_0006 = 0
C_0015_linear_0007: - act_0007 + xi_0015_0007 = 0
C_0015_linear_0008: - act_0008 + xi_0015_0008 = 1
C_0015_linear_0009: - act_0009 + xi_0015_0009 = 0
C_0015_linear_0010: - act_0010 + xi_0015_0010 = 0
C_0015_linear_0011: - act_0011 + xi_0015_0011 = 0
C_0015_linear_0012: - act_0012 + xi_0015_0012 = 0
C_0015_linear_0013: - act_0013 + xi_0015_0013 = 0
C_0015_linear_0014: - act_0014 + xi_0015_0014 = 0
C_0015_linear_0015: - act_0015 + xi_0015_0015 = 1
C_0015_linear_0016: - act_0016 + xi_0015_0016 = 0
C_0015_linear_0017: - act_0017 + xi_0015_0017 = 0
C_0015_linear_0018: - act_0018 + xi_0015_0018 = 0
C_0015_linear_0019: - act_0019 + xi_0015_0019 = 0
C_0015_linear_0020: - act_0020 + xi_0015_0020 = 0
C_0015_linear_0021: - act_0021 + xi_0015_0021 = 0
C_0015_linear_0022: - act_0022 + xi_0015_0022 = 0
C_0015_linear_0023: - act_0023 + xi_0015_0023 = 1
C_0015_linear_0024: - act_0024 + xi_0015_0024 = 0
C_0015_linear_0025: - act_0025 + xi_0015_0025 = 0
C_0015_linear_0026: - act_0026 + xi_0015_0026 = 0
C_0015_linear_0027: - act_0027 + xi_0015_0027 = 0
C_0015_linear_0028: - act_0028 + xi_0015_0028 = 1
C_0015_linear_0029: - act_0029 + xi_0015_0029 = 0
C_0015_linear_0030: - act_0030 + xi_0015_0030 = 0
C_0015_linear_0031: - act_0031 + xi_0015_0031 = 0
C_0015_linear_0032: - act_0032 + xi_0015_0032 = 1
C_0015_linear_0033: - act_0033 + xi_0015_0033 = 0
C_0015_linear_0034: - act_0034 + xi_0015_0034 = 1
C_0015_linear_0035: - act_0035 + xi_0015_0035 = 0
C_0015_linear_0036: - act_0036 + xi_0015_0036 = 0
C_0015_linear_0037: - act_0037 + xi_0015_0037 = 0
C_0015_linear_0038: - act_0038 + xi_0015_0038 = 0
C_0015_linear_0039: - act_0039 + xi_0015_0039 = 0
C_0015_loss_ge: - 10000 omg_0015 - 0.0111828930987 xi_0015_0000
 + 0.0316585861132 xi_0015_0001 + 0.000106039552982 xi_0015_0002
 + 0.2872356913 xi_0015_0003 + 0.013030358965 xi_0015_0004
 + 0.240120705533 xi_0015_0005 + 0.442580447937 xi_0015_0006
 - 0.375980671537 xi_0015_0007 + 0.392374151169 xi_0015_0008
 + 1.06701819784 xi_0015_0009 - 0.942756746323 xi_0015_0010
 + 0.412027349402 xi_0015_0011 + 0.570359951286 xi_0015_0012
 - 0.852905494999 xi_0015_0013 - 0.323418189169 xi_0015_0014
 + 0.252938924417 xi_0015_0015 - 0.0388599557068 xi_0015_0016
 - 0.020417849004 xi_0015_0017 - 0.119001175529 xi_0015_0018
 + 0.47399163059 xi_0015_0019 - 0.445604107063 xi_0015_0020
 - 0.0184582213876 xi_0015_0021 + 0.307589905785 xi_0015_0022
 + 0.444474821864 xi_0015_0023 - 0.187382383206 xi_0015_0024
 + 0.383302875585 xi_0015_0025 - 0.750161596334 xi_0015_0026
 - 1.33170117681 xi_0015_0027 + 0.0190658885385 xi_0015_0028
 - 0.745784276999 xi_0015_0029 - 0.516231038044 xi_0015_0030
 - 0.409255825925 xi_0015_0031 - 0.0994375517393 xi_0015_0032
 - 0.734256048841 xi_0015_0033 - 0.253933375138 xi_0015_0034
 - 0.256674950149 xi_0015_0035 - 0.732341101218 xi_0015_0036
 - 0.86707443001 xi_0015_0037 - 0.319117177314 xi_0015_0038
 + 0.0697086420108 xi_0015_0039 >= -9998.75705057
C_0015_loss_le: - 10000 omg_0015 - 0.0111828930987 xi_0015_0000
 + 0.0316585861132 xi_0015_0001 + 0.000106039552982 xi_0015_0002
 + 0.2872356913 xi_0015_0003 + 0.013030358965 xi_0015_0004
 + 0.240120705533 xi_0015_0005 + 0.442580447937 xi_0015_0006
 - 0.375980671537 xi_0015_0007 + 0.392374151169 xi_0015_0008
 + 1.06701819784 xi_0015_0009 - 0.942756746323 xi_0015_0010
 + 0.412027349402 xi_0015_0011 + 0.570359951286 xi_0015_0012
 - 0.852905494999 xi_0015_0013 - 0.323418189169 xi_0015_0014
 + 0.252938924417 xi_0015_0015 - 0.0388599557068 xi_0015_0016
 - 0.020417849004 xi_0015_0017 - 0.119001175529 xi_0015_0018
 + 0.47399163059 xi_0015_0019 - 0.445604107063 xi_0015_0020
 - 0.0184582213876 xi_0015_0021 + 0.307589905785 xi_0015_0022
 + 0.444474821864 xi_0015_0023 - 0.187382383206 xi_0015_0024
 + 0.383302875585 xi_0015_0025 - 0.750161596334 xi_0015_0026
 - 1.33170117681 xi_0015_0027 + 0.0190658885385 xi_0015_0028
 - 0.745784276999 xi_0015_0029 - 0.516231038044 xi_0015_0030
 - 0.409255825925 xi_0015_0031 - 0.0994375517393 xi_0015_0032
 - 0.734256048841 xi_0015_0033 - 0.253933375138 xi_0015_0034
 - 0.256674950149 xi_0015_0035 - 0.732341101218 xi_0015_0036
 - 0.86707443001 xi_0015_0037 - 0.319117177314 xi_0015_0038
 + 0.0697086420108 xi_0015_0039 <= 1.24294941651
C_0016_cost_0001: cost_0016 - 0.0275526923386 pi_0001_0000
 - 0.0126479830791 pi_0001_0001 >= 0
C_0016_cost_0002: cost_0016 - 0.000721714671911 pi_0002_0000
 - 0.000693805302741 pi_0002_0001 - 0.000665908020929 pi_0002_0002
 - 0.000638022826723 pi_0002_0003 - 0.000610149720365 pi_0002_0004
 - 0.00058228870209 pi_0002_0005 - 0.000554439772124 pi_0002_0006
 - 0.000526602930686 pi_0002_0007 - 0.000498778177989 pi_0002_0008
 - 0.000470965514237 pi_0002_0009 - 0.000443164939626 pi_0002_0010
 - 0.000415376454345 pi_0002_0011 - 0.000387600058576 pi_0002_0012
 - 0.000359835752492 pi_0002_0013 - 0.00033208353626 pi_0002_0014
 - 0.000304343410039 pi_0002_0015 - 0.00027661537398 pi_0002_0016
 - 0.000248899428225 pi_0002_0017 - 0.000221195572911 pi_0002_0018
 - 0.000193503808165 pi_0002_0019 - 0.000165824134109 pi_0002_0020
 - 0.000138156550853 pi_0002_0021 - 0.000110501058505 pi_0002_0022
 - 8.28576571594e-05 pi_0002_0023 - 5.52263469071e-05 pi_0002_0024
 - 2.76071278293e-05 pi_0002_0025 >= 0
C_0016_cost_0003: cost_0016 >= 0
C_0016_cost_0004: cost_0016 >= 0
C_0016_cost_0005: cost_0016 >= 0
C_0016_cost_0006: cost_0016 >= 0
C_0016_cost_0007: cost_0016 >= 0
C_0016_cost_0008: cost_0016 >= 0
C_0016_cost_0009: cost_0016 >= 0
C_0016_cost_0010: cost_0016 >= 0
C_0016_cost_0011: cost_0016 >= 0
C_0016_cost_0012: cost_0016 >= 0
C_0016_cost_0013: cost_0016 >= 0
C_0016_cost_0014: cost_0016 >= 0
C_0016_cost_0015: cost_0016 >= 0
C_0016_cost_0016: cost_0016 >= 0
C_0016_cost_0017: cost_0016 >= 0
C_0016_cost_0018: cost_0016 >= 0
C_0016_cost_0019: cost_0016 >= 0
C_0016_cost_0020: cost_0016 >= 0
C_0016_cost_0021: cost_0016 >= 0
C_0016_cost_0022: cost_0016 >= 0
C_0016_cost_0023: cost_0016 >= 0
C_0016_cost_0024: cost_0016 >= 0
C_0016_cost_0025: cost_0016 >= 0
C_0016_cost_0026: cost_0016 - 0.0106666652041 pi_0026_0000 >= 0
C_0016_cost_0027: cost_0016 >= 0
C_0016_cost_0028: cost_0016 >= 0
C_0016_cost_0029: cost_0016 - 0.426666385001 pi_0029_0000 >= 0
C_0016_cost_0030: cost_0016 >= 0
C_0016_cost_0031: cost_0016 >= 0
C_0016_cost_0032: cost_0016 >= 0
C_0016_cost_0033: cost_0016 >= 0
C_0016_cost_0034: cost_0016 >= 0
C_0016_cost_0035: cost_0016 >= 0
C_0016_cost_0036: cost_0016 >= 0
C_0016_linear_0000: - act_0000 + xi_0016_0000 = 25
C_0016_linear_0001: - act_0001 + xi_0016_0001 = 30
C_0016_linear_0002: - act_0002 + xi_0016_0002 = 8072
C_0016_linear_0003: - act_0003 + xi_0016_0003 = 2
C_0016_linear_0004: - act_0004 + xi_0016_0004 = 3
C_0016_linear_0005: - act_0005 + xi_0016_0005 = 3
C_0016_linear_0006: - act_0006 + xi_0016_0006 = 0
C_0016_linear_0007: - act_0007 + xi_0016_0007 = 0
C_0016_linear_0008: - act_0008 + xi_0016_0008 = 1
C_0016_linear_0009: - act_0009 + xi_0016_0009 = 0
C_0016_linear_0010: - act_0010 + xi_0016_0010 = 0
C_0016_linear_0011: - act_0011 + xi_0016_0011 = 1
C_0016_linear_0012: - act_0012 + xi_0016_0012 = 0
C_0016_linear_0013: - act_0013 + xi_0016_0013 = 0
C_0016_linear_0014: - act_0014 + xi_0016_0014 = 1
C_0016_linear_0015: - act_0015 + xi_0016_0015 = 0
C_0016_linear_0016: - act_0016 + xi_0016_0016 = 0
C_0016_linear_0017: - act_0017 + xi_0016_0017 = 1
C_0016_linear_0018: - act_0018 + xi_0016_0018 = 1
C_0016_linear_0019: - act_0019 + xi_0016_0019 = 0
C_0016_linear_0020: - act_0020 + xi_0016_0020 = 0
C_0016_linear_0021: - act_0021 + xi_0016_0021 = 0
C_0016_linear_0022: - act_0022 + xi_0016_0022 = 0
C_0016_linear_0023: - act_0023 + xi_0016_0023 = 0
C_0016_linear_0024: - act_0024 + xi_0016_0024 = 0
C_0016_linear_0025: - act_0025 + xi_0016_0025 = 0
C_0016_linear_0026: - act_0026 + xi_0016_0026 = 0
C_0016_linear_0027: - act_0027 + xi_0016_0027 = 0
C_0016_linear_0028: - act_0028 + xi_0016_0028 = 1
C_0016_linear_0029: - act_0029 + xi_0016_0029 = 0
C_0016_linear_0030: - act_0030 + xi_0016_0030 = 0
C_0016_linear_0031: - act_0031 + xi_0016_0031 = 1
C_0016_linear_0032: - act_0032 + xi_0016_0032 = 0
C_0016_linear_0033: - act_0033 + xi_0016_0033 = 0
C_0016_linear_0034: - act_0034 + xi_0016_0034 = 1
C_0016_linear_0035: - act_0035 + xi_0016_0035 = 0
C_0016_linear_0036: - act_0036 + xi_0016_0036 = 0
C_0016_linear_0037: - act_0037 + xi_0016_0037 = 0
C_0016_linear_0038: - act_0038 + xi_0016_0038 = 1
C_0016_linear_0039: - act_0039 + xi_0016_0039 = 1
C_0016_loss_ge: - 10000 omg_0016 - 0.0111828930987 xi_0016_0000
 + 0.0316585861132 xi_0016_0001 + 0.000106039552982 xi_0016_0002
 + 0.2872356913 xi_0016_0003 + 0.013030358965 xi_0016_0004
 + 0.240120705533 xi_0016_0005 + 0.442580447937 xi_0016_0006
 - 0.375980671537 xi_0016_0007 + 0.392374151169 xi_0016_0008
 + 1.06701819784 xi_0016_0009 - 0.942756746323 xi_0016_0010
 + 0.412027349402 xi_0016_0011 + 0.570359951286 xi_0016_0012
 - 0.852905494999 xi_0016_0013 - 0.323418189169 xi_0016_0014
 + 0.252938924417 xi_0016_0015 - 0.0388599557068 xi_0016_0016
 - 0.020417849004 xi_0016_0017 - 0.119001175529 xi_0016_0018
 + 0.47399163059 xi_0016_0019 - 0.445604107063 xi_0016_0020
 - 0.0184582213876 xi_0016_0021 + 0.307589905785 xi_0016_0022
 + 0.444474821864 xi_0016_0023 - 0.187382383206 xi_0016_0024
 + 0.383302875585 xi_0016_0025 - 0.750161596334 xi_0016_0026
 - 1.33170117681 xi_0016_0027 + 0.0190658885385 xi_0016_0028
 - 0.745784276999 xi_0016_0029 - 0.516231038044 xi_0016_0030
 - 0.409255825925 xi_0016_0031 - 0.0994375517393 xi_0016_0032
 - 0.734256048841 xi_0016_0033 - 0.253933375138 xi_0016_0034
 - 0.256674950149 xi_0016_0035 - 0.732341101218 xi_0016_0036
 - 0.86707443001 xi_0016_0037 - 0.319117177314 xi_0016_0038
 + 0.0697086420108 xi_0016_0039 >= -9998.75705057
C_0016_loss_le: - 10000 omg_0016 - 0.0111828930987 xi_0016_0000
 + 0.0316585861132 xi_0016_0001 + 0.000106039552982 xi_0016_0002
 + 0.2872356913 xi_0016_0003 + 0.013030358965 xi_0016_0004
 + 0.240120705533 xi_0016_0005 + 0.442580447937 xi_0016_0006
 - 0.375980671537 xi_0016_0007 + 0.392374151169 xi_0016_0008
 + 1.06701819784 xi_0016_0009 - 0.942756746323 xi_0016_0010
 + 0.412027349402 xi_0016_0011 + 0.570359951286 xi_0016_0012
 - 0.852905494999 xi_0016_0013 - 0.323418189169 xi_0016_0014
 + 0.252938924417 xi_0016_0015 - 0.0388599557068 xi_0016_0016
 - 0.020417849004 xi_0016_0017 - 0.119001175529 xi_0016_0018
 + 0.47399163059 xi_0016_0019 - 0.445604107063 xi_0016_0020
 - 0.0184582213876 xi_0016_0021 + 0.307589905785 xi_0016_0022
 + 0.444474821864 xi_0016_0023 - 0.187382383206 xi_0016_0024
 + 0.383302875585 xi_0016_0025 - 0.750161596334 xi_0016_0026
 - 1.33170117681 xi_0016_0027 + 0.0190658885385 xi_0016_0028
 - 0.745784276999 xi_0016_0029 - 0.516231038044 xi_0016_0030
 - 0.409255825925 xi_0016_0031 - 0.0994375517393 xi_0016_0032
 - 0.734256048841 xi_0016_0033 - 0.253933375138 xi_0016_0034
 - 0.256674950149 xi_0016_0035 - 0.732341101218 xi_0016_0036
 - 0.86707443001 xi_0016_0037 - 0.319117177314 xi_0016_0038
 + 0.0697086420108 xi_0016_0039 <= 1.24294941651
C_0017_cost_0001: cost_0017 - 0.0653909198978 pi_0001_0000
 - 0.0317669758175 pi_0001_0001 >= 0
C_0017_cost_0002: cost_0017 - 0.00644639253083 pi_0002_0000
 - 0.00619775105993 pi_0002_0001 - 0.00594916499992 pi_0002_0002
 - 0.00570063445876 pi_0002_0003 - 0.0054521595442 pi_0002_0004
 - 0.00520374036375 pi_0002_0005 - 0.00495537702465 pi_0002_0006
 - 0.00470706963394 pi_0002_0007 - 0.0044588182984 pi_0002_0008
 - 0.00421062312458 pi_0002_0009 - 0.00396248421878 pi_0002_0010
 - 0.00371440168707 pi_0002_0011 - 0.00346637563528 pi_0002_0012
 - 0.00321840616901 pi_0002_0013 - 0.00297049339361 pi_0002_0014
 - 0.00272263741419 pi_0002_0015 - 0.00247483833563 pi_0002_0016
 - 0.00222709626257 pi_0002_0017 - 0.0019794112994 pi_0002_0018
 - 0.00173178355031 pi_0002_0019 - 0.00148421311919 pi_0002_0020
 - 0.00123670010975 pi_0002_0021 - 0.000989244625433 pi_0002_0022
 - 0.000741846769444 pi_0002_0023 - 0.000494506644759 pi_0002_0024
 - 0.000247224354112 pi_0002_0025 >= 0
C_0017_cost_0003: cost_0017 >= 0
C_0017_cost_0004: cost_0017 >= 0
C_0017_cost_0005: cost_0017 >= 0
C_0017_cost_0006: cost_0017 >= 0
C_0017_cost_0007: cost_0017 >= 0
C_0017_cost_0008: cost_0017 >= 0
C_0017_cost_0009: cost_0017 >= 0
C_0017_cost_0010: cost_0017 >= 0
C_0017_cost_0011: cost_0017 >= 0
C_0017_cost_0012: cost_0017 >= 0
C_0017_cost_0013: cost_0017 >= 0
C_0017_cost_0014: cost_0017 >= 0
C_0017_cost_0015: cost_0017 >= 0
C_0017_cost_0016: cost_0017 >= 0
C_0017_cost_0017: cost_0017 >= 0
C_0017_cost_0018: cost_0017 >= 0
C_0017_cost_0019: cost_0017 >= 0
C_0017_cost_0020: cost_0017 >= 0
C_0017_cost_0021: cost_0017 >= 0
C_0017_cost_0022: cost_0017 >= 0
C_0017_cost_0023: cost_0017 >= 0
C_0017_cost_0024: cost_0017 >= 0
C_0017_cost_0025: cost_0017 >= 0
C_0017_cost_0026: cost_0017 - 0.0106666652041 pi_0026_0000 >= 0
C_0017_cost_0027: cost_0017 >= 0
C_0017_cost_0028: cost_0017 >= 0
C_0017_cost_0029: cost_0017 - 0.426666385001 pi_0029_0000 >= 0
C_0017_cost_0030: cost_0017 >= 0
C_0017_cost_0031: cost_0017 >= 0
C_0017_cost_0032: cost_0017 >= 0
C_0017_cost_0033: cost_0017 >= 0
C_0017_cost_0034: cost_0017 >= 0
C_0017_cost_0035: cost_0017 >= 0
C_0017_cost_0036: cost_0017 >= 0
C_0017_linear_0000: - act_0000 + xi_0017_0000 = 47
C_0017_linear_0001: - act_0001 + xi_0017_0001 = 18
C_0017_linear_0002: - act_0002 + xi_0017_0002 = 1984
C_0017_linear_0003: - act_0003 + xi_0017_0003 = 4
C_0017_linear_0004: - act_0004 + xi_0017_0004 = 4
C_0017_linear_0005: - act_0005 + xi_0017_0005 = 2
C_0017_linear_0006: - act_0006 + xi_0017_0006 = 0
C_0017_linear_0007: - act_0007 + xi_0017_0007 = 0
C_0017_linear_0008: - act_0008 + xi_0017_0008 = 1
C_0017_linear_0009: - act_0009 + xi_0017_0009 = 0
C_0017_linear_0010: - act_0010 + xi_0017_0010 = 0
C_0017_linear_0011: - act_0011 + xi_0017_0011 = 1
C_0017_linear_0012: - act_0012 + xi_0017_0012 = 0
C_0017_linear_0013: - act_0013 + xi_0017_0013 = 0
C_0017_linear_0014: - act_0014 + xi_0017_0014 = 0
C_0017_linear_0015: - act_0015 + xi_0017_0015 = 0
C_0017_linear_0016: - act_0016 + xi_0017_0016 = 0
C_0017_linear_0017: - act_0017 + xi_0017_0017 = 1
C_0017_linear_0018: - act_0018 + xi_0017_0018 = 0
C_0017_linear_0019: - act_0019 + xi_0017_0019 = 0
C_0017_linear_0020: - act_0020 + xi_0017_0020 = 0
C_0017_linear_0021: - act_0021 + xi_0017_0021 = 1
C_0017_linear_0022: - act_0022 + xi_0017_0022 = 0
C_0017_linear_0023: - act_0023 + xi_0017_0023 = 0
C_0017_linear_0024: - act_0024 + xi_0017_0024 = 0
C_0017_linear_0025: - act_0025 + xi_0017_0025 = 0
C_0017_linear_0026: - act_0026 + xi_0017_0026 = 0
C_0017_linear_0027: - act_0027 + xi_0017_0027 = 0
C_0017_linear_0028: - act_0028 + xi_0017_0028 = 0
C_0017_linear_0029: - act_0029 + xi_0017_0029 = 0
C_0017_linear_0030: - act_0030 + xi_0017_0030 = 1
C_0017_linear_0031: - act_0031 + xi_0017_0031 = 1
C_0017_linear_0032: - act_0032 + xi_0017_0032 = 0
C_0017_linear_0033: - act_0033 + xi_0017_0033 = 0
C_0017_linear_0034: - act_0034 + xi_0017_0034 = 1
C_0017_linear_0035: - act_0035 + xi_0017_0035 = 0
C_0017_linear_0036: - act_0036 + xi_0017_0036 = 0
C_0017_linear_0037: - act_0037 + xi_0017_0037 = 0
C_0017_linear_0038: - act_0038 + xi_0017_0038 = 1
C_0017_linear_0039: - act_0039 + xi_0017_0039 = 1
C_0017_loss_ge: - 10000 omg_0017 - 0.0111828930987 xi_0017_0000
 + 0.0316585861132 xi_0017_0001 + 0.000106039552982 xi_0017_0002
 + 0.2872356913 xi_0017_0003 + 0.013030358965 xi_0017_0004
 + 0.240120705533 xi_0017_0005 + 0.442580447937 xi_0017_0006
 - 0.375980671537 xi_0017_0007 + 0.392374151169 xi_0017_0008
 + 1.06701819784 xi_0017_0009 - 0.942756746323 xi_0017_0010
 + 0.412027349402 xi_0017_0011 + 0.570359951286 xi_0017_0012
 - 0.852905494999 xi_0017_0013 - 0.323418189169 xi_0017_0014
 + 0.252938924417 xi_0017_0015 - 0.0388599557068 xi_0017_0016
 - 0.020417849004 xi_0017_0017 - 0.119001175529 xi_0017_0018
 + 0.47399163059 xi_0017_0019 - 0.445604107063 xi_0017_0020
 - 0.0184582213876 xi_0017_0021 + 0.307589905785 xi_0017_0022
 + 0.444474821864 xi_0017_0023 - 0.187382383206 xi_0017_0024
 + 0.383302875585 xi_0017_0025 - 0.750161596334 xi_0017_0026
 - 1.33170117681 xi_0017_0027 + 0.0190658885385 xi_0017_0028
 - 0.745784276999 xi_0017_0029 - 0.516231038044 xi_0017_0030
 - 0.409255825925 xi_0017_0031 - 0.0994375517393 xi_0017_0032
 - 0.734256048841 xi_0017_0033 - 0.253933375138 xi_0017_0034
 - 0.256674950149 xi_0017_0035 - 0.732341101218 xi_0017_0036
 - 0.86707443001 xi_0017_0037 - 0.319117177314 xi_0017_0038
 + 0.0697086420108 xi_0017_0039 >= -9998.75705057
C_0017_loss_le: - 10000 omg_0017 - 0.0111828930987 xi_0017_0000
 + 0.0316585861132 xi_0017_0001 + 0.000106039552982 xi_0017_0002
 + 0.2872356913 xi_0017_0003 + 0.013030358965 xi_0017_0004
 + 0.240120705533 xi_0017_0005 + 0.442580447937 xi_0017_0006
 - 0.375980671537 xi_0017_0007 + 0.392374151169 xi_0017_0008
 + 1.06701819784 xi_0017_0009 - 0.942756746323 xi_0017_0010
 + 0.412027349402 xi_0017_0011 + 0.570359951286 xi_0017_0012
 - 0.852905494999 xi_0017_0013 - 0.323418189169 xi_0017_0014
 + 0.252938924417 xi_0017_0015 - 0.0388599557068 xi_0017_0016
 - 0.020417849004 xi_0017_0017 - 0.119001175529 xi_0017_0018
 + 0.47399163059 xi_0017_0019 - 0.445604107063 xi_0017_0020
 - 0.0184582213876 xi_0017_0021 + 0.307589905785 xi_0017_0022
 + 0.444474821864 xi_0017_0023 - 0.187382383206 xi_0017_0024
 + 0.383302875585 xi_0017_0025 - 0.750161596334 xi_0017_0026
 - 1.33170117681 xi_0017_0027 + 0.0190658885385 xi_0017_0028
 - 0.745784276999 xi_0017_0029 - 0.516231038044 xi_0017_0030
 - 0.409255825925 xi_0017_0031 - 0.0994375517393 xi_0017_0032
 - 0.734256048841 xi_0017_0033 - 0.253933375138 xi_0017_0034
 - 0.256674950149 xi_0017_0035 - 0.732341101218 xi_0017_0036
 - 0.86707443001 xi_0017_0037 - 0.319117177314 xi_0017_0038
 + 0.0697086420108 xi_0017_0039 <= 1.24294941651
C_0018_cost_0001: cost_0018 - 0.0873361949203 pi_0001_0000
 - 0.0442906580929 pi_0001_0001 >= 0
C_0018_cost_0002: cost_0018 - 0.00442102606718 pi_0002_0000
 - 0.00425297703675 pi_0002_0001 - 0.00408476842869 pi_0002_0002
 - 0.00391640028381 pi_0002_0003 - 0.00374787264328 pi_0002_0004
 - 0.00357918554863 pi_0002_0005 - 0.00341033904173 pi_0002_0006
 - 0.00324133316482 pi_0002_0007 - 0.00307216796052 pi_0002_0008
 - 0.00290284347176 pi_0002_0009 - 0.00273335974186 pi_0002_0010
 - 0.0025637168145 pi_0002_0011 - 0.00239391473371 pi_0002_0012
 - 0.00222395354387 pi_0002_0013 - 0.00205383328972 pi_0002_0014
 - 0.00188355401637 pi_0002_0015 - 0.00171311576928 pi_0002_0016
 - 0.00154251859427 pi_0002_0017 - 0.00137176253752 pi_0002_0018
 - 0.00120084764555 pi_0002_0019 - 0.00102977396527 pi_0002_0020
 - 0.00085854154392 pi_0002_0021 - 0.000687150429113 pi_0002_0022
 - 0.000515600668814 pi_0002_0023 - 0.000343892311348 pi_0002_0024
 - 0.000172025405396 pi_0002_0025 >= 0
C_0018_cost_0003: cost_0018 >= 0
C_0018_cost_0004: cost_0018 >= 0
C_0018_cost_0005: cost_0018 >= 0
C_0018_cost_0006: cost_0018 >= 0
C_0018_cost_0007: cost_0018 >= 0
C_0018_cost_0008: cost_0018 >= 0
C_0018_cost_0009: cost_0018 >= 0
C_0018_cost_0010: cost_0018 >= 0
C_0018_cost_0011: cost_0018 >= 0
C_0018_cost_0012: cost_0018 >= 0
C_0018_cost_0013: cost_0018 >= 0
C_0018_cost_0014: cost_0018 >= 0
C_0018_cost_0015: cost_0018 >= 0
C_0018_cost_0016: cost_0018 >= 0
C_0018_cost_0017: cost_0018 >= 0
C_0018_cost_0018: cost_0018 >= 0
C_0018_cost_0019: cost_0018 >= 0
C_0018_cost_0020: cost_0018 >= 0
C_0018_cost_0021: cost_0018 >= 0
C_0018_cost_0022: cost_0018 >= 0
C_0018_cost_0023: cost_0018 >= 0
C_0018_cost_0024: cost_0018 >= 0
C_0018_cost_0025: cost_0018 >= 0
C_0018_cost_0026: cost_0018 - 0.0106666652041 pi_0026_0000 >= 0
C_0018_cost_0027: cost_0018 >= 0
C_0018_cost_0028: cost_0018 >= 0
C_0018_cost_0029: cost_0018 - 0.426666385001 pi_0029_0000 >= 0
C_0018_cost_0030: cost_0018 >= 0
C_0018_cost_0031: cost_0018 >= 0
C_0018_cost_0032: cost_0018 >= 0
C_0018_cost_0033: cost_0018 >= 0
C_0018_cost_0034: cost_0018 >= 0
C_0018_cost_0035: cost_0018 >= 0
C_0018_cost_0036: cost_0018 >= 0
C_0018_linear_0000: - act_0000 + xi_0018_0000 = 24
C_0018_linear_0001: - act_0001 + xi_0018_0001 = 12
C_0018_linear_0002: - act_0002 + xi_0018_0002 = 626
C_0018_linear_0003: - act_0003 + xi_0018_0003 = 4
C_0018_linear_0004: - act_0004 + xi_0018_0004 = 4
C_0018_linear_0005: - act_0005 + xi_0018_0005 = 1
C_0018_linear_0006: - act_0006 + xi_0018_0006 = 0
C_0018_linear_0007: - act_0007 + xi_0018_0007 = 0
C_0018_linear_0008: - act_0008 + xi_0018_0008 = 1
C_0018_linear_0009: - act_0009 + xi_0018_0009 = 1
C_0018_linear_0010: - act_0010 + xi_0018_0010 = 0
C_0018_linear_0011: - act_0011 + xi_0018_0011 = 1
C_0018_linear_0012: - act_0012 + xi_0018_0012 = 0
C_0018_linear_0013: - act_0013 + xi_0018_0013 = 0
C_0018_linear_0014: - act_0014 + xi_0018_0014 = 1
C_0018_linear_0015: - act_0015 + xi_0018_0015 = 0
C_0018_linear_0016: - act_0016 + xi_0018_0016 = 0
C_0018_linear_0017: - act_0017 + xi_0018_0017 = 0
C_0018_linear_0018: - act_0018 + xi_0018_0018 = 0
C_0018_linear_0019: - act_0019 + xi_0018_0019 = 0
C_0018_linear_0020: - act_0020 + xi_0018_0020 = 1
C_0018_linear_0021: - act_0021 + xi_0018_0021 = 0
C_0018_linear_0022: - act_0022 + xi_0018_0022 = 0
C_0018_linear_0023: - act_0023 + xi_0018_0023 = 0
C_0018_linear_0024: - act_0024 + xi_0018_0024 = 0
C_0018_linear_0025: - act_0025 + xi_0018_0025 = 0
C_0018_linear_0026: - act_0026 + xi_0018_0026 = 0
C_0018_linear_0027: - act_0027 + xi_0018_0027 = 0
C_0018_linear_0028: - act_0028 + xi_0018_0028 = 0
C_0018_linear_0029: - act_0029 + xi_0018_0029 = 0
C_0018_linear_0030: - act_0030 + xi_0018_0030 = 1
C_0018_linear_0031: - act_0031 + xi_0018_0031 = 1
C_0018_linear_0032: - act_0032 + xi_0018_0032 = 0
C_0018_linear_0033: - act_0033 + xi_0018_0033 = 0
C_0018_linear_0034: - act_0034 + xi_0018_0034 = 1
C_0018_linear_0035: - act_0035 + xi_0018_0035 = 0
C_0018_linear_0036: - act_0036 + xi_0018_0036 = 0
C_0018_linear_0037: - act_0037 + xi_0018_0037 = 0
C_0018_linear_0038: - act_0038 + xi_0018_0038 = 0
C_0018_linear_0039: - act_0039 + xi_0018_0039 = 0
C_0018_loss_ge: - 10000 omg_0018 - 0.0111828930987 xi_0018_0000
 + 0.0316585861132 xi_0018_0001 + 0.000106039552982 xi_0018_0002
 + 0.2872356913 xi_0018_0003 + 0.013030358965 xi_0018_0004
 + 0.240120705533 xi_0018_0005 + 0.442580447937 xi_0018_0006
 - 0.375980671537 xi_0018_0007 + 0.392374151169 xi_0018_0008
 + 1.06701819784 xi_0018_0009 - 0.942756746323 xi_0018_0010
 + 0.412027349402 xi_0018_0011 + 0.570359951286 xi_0018_0012
 - 0.852905494999 xi_0018_0013 - 0.323418189169 xi_0018_0014
 + 0.252938924417 xi_0018_0015 - 0.0388599557068 xi_0018_0016
 - 0.020417849004 xi_0018_0017 - 0.119001175529 xi_0018_0018
 + 0.47399163059 xi_0018_0019 - 0.445604107063 xi_0018_0020
 - 0.0184582213876 xi_0018_0021 + 0.307589905785 xi_0018_0022
 + 0.444474821864 xi_0018_0023 - 0.187382383206 xi_0018_0024
 + 0.383302875585 xi_0018_0025 - 0.750161596334 xi_0018_0026
 - 1.33170117681 xi_0018_0027 + 0.0190658885385 xi_0018_0028
 - 0.745784276999 xi_0018_0029 - 0.516231038044 xi_0018_0030
 - 0.409255825925 xi_0018_0031 - 0.0994375517393 xi_0018_0032
 - 0.734256048841 xi_0018_0033 - 0.253933375138 xi_0018_0034
 - 0.256674950149 xi_0018_0035 - 0.732341101218 xi_0018_0036
 - 0.86707443001 xi_0018_0037 - 0.319117177314 xi_0018_0038
 + 0.0697086420108 xi_0018_0039 >= -9998.75705057
C_0018_loss_le: - 10000 omg_0018 - 0.0111828930987 xi_0018_0000
 + 0.0316585861132 xi_0018_0001 + 0.000106039552982 xi_0018_0002
 + 0.2872356913 xi_0018_0003 + 0.013030358965 xi_0018_0004
 + 0.240120705533 xi_0018_0005 + 0.442580447937 xi_0018_0006
 - 0.375980671537 xi_0018_0007 + 0.392374151169 xi_0018_0008
 + 1.06701819784 xi_0018_0009 - 0.942756746323 xi_0018_0010
 + 0.412027349402 xi_0018_0011 + 0.570359951286 xi_0018_0012
 - 0.852905494999 xi_0018_0013 - 0.323418189169 xi_0018_0014
 + 0.252938924417 xi_0018_0015 - 0.0388599557068 xi_0018_0016
 - 0.020417849004 xi_0018_0017 - 0.119001175529 xi_0018_0018
 + 0.47399163059 xi_0018_0019 - 0.445604107063 xi_0018_0020
 - 0.0184582213876 xi_0018_0021 + 0.307589905785 xi_0018_0022
 + 0.444474821864 xi_0018_0023 - 0.187382383206 xi_0018_0024
 + 0.383302875585 xi_0018_0025 - 0.750161596334 xi_0018_0026
 - 1.33170117681 xi_0018_0027 + 0.0190658885385 xi_0018_0028
 - 0.745784276999 xi_0018_0029 - 0.516231038044 xi_0018_0030
 - 0.409255825925 xi_0018_0031 - 0.0994375517393 xi_0018_0032
 - 0.734256048841 xi_0018_0033 - 0.253933375138 xi_0018_0034
 - 0.256674950149 xi_0018_0035 - 0.732341101218 xi_0018_0036
 - 0.86707443001 xi_0018_0037 - 0.319117177314 xi_0018_0038
 + 0.0697086420108 xi_0018_0039 <= 1.24294941651
C_0019_cost_0001: cost_0019 - 0.0124000182326 pi_0001_0000
 - 0.00617282715365 pi_0001_0001 >= 0
C_0019_cost_0002: cost_0019 - 1.95559541942e-05 pi_0002_0000
 - 1.88035992398e-05 pi_0002_0001 - 1.80512513808e-05 pi_0002_0002
 - 1.72989117549e-05 pi_0002_0003 - 1.65465815009e-05 pi_0002_0004
 - 1.57942617578e-05 pi_0002_0005 - 1.50419536656e-05 pi_0002_0006
 - 1.42896583651e-05 pi_0002_0007 - 1.35373769974e-05 pi_0002_0008
 - 1.27851107048e-05 pi_0002_0009 - 1.20328606298e-05 pi_0002_0010
 - 1.12806279158e-05 pi_0002_0011 - 1.0528413707e-05 pi_0002_0012
 - 9.77621914799e-06 pi_0002_0013 - 9.02404538428e-06 pi_0002_0014
 - 8.27189356167e-06 pi_0002_0015 - 7.51976482694e-06 pi_0002_0016
 - 6.76766032714e-06 pi_0002_0017 - 6.01558121038e-06 pi_0002_0018
 - 5.26352862495e-06 pi_0002_0019 - 4.51150372005e-06 pi_0002_0020
 - 3.7595076452e-06 pi_0002_0021 - 3.00754155058e-06 pi_0002_0022
 - 2.25560658718e-06 pi_0002_0023 - 1.50370390628e-06 pi_0002_0024
 - 7.51834659751e-07 pi_0002_0025 >= 0
C_0019_cost_0003: cost_0019 >= 0
C_0019_cost_0004: cost_0019 >= 0
C_0019_cost_0005: cost_0019 >= 0
C_0019_cost_0006: cost_0019 >= 0
C_0019_cost_0007: cost_0019 >= 0
C_0019_cost_0008: cost_0019 >= 0
C_0019_cost_0009: cost_0019 >= 0
C_0019_cost_0010: cost_0019 >= 0
C_0019_cost_0011: cost_0019 >= 0
C_0019_cost_0012: cost_0019 >= 0
C_0019_cost_0013: cost_0019 >= 0
C_0019_cost_0014: cost_0019 >= 0
C_0019_cost_0015: cost_0019 >= 0
C_0019_cost_0016: cost_0019 >= 0
C_0019_cost_0017: cost_0019 >= 0
C_0019_cost_0018: cost_0019 >= 0
C_0019_cost_0019: cost_0019 >= 0
C_0019_cost_0020: cost_0019 >= 0
C_0019_cost_0021: cost_0019 >= 0
C_0019_cost_0022: cost_0019 >= 0
C_0019_cost_0023: cost_0019 >= 0
C_0019_cost_0024: cost_0019 >= 0
C_0019_cost_0025: cost_0019 >= 0
C_0019_cost_0026: cost_0019 - 0.0106666652041 pi_0026_0000 >= 0
C_0019_cost_0027: cost_0019 >= 0
C_0019_cost_0028: cost_0019 >= 0
C_0019_cost_0029: cost_0019 - 0.426666385001 pi_0029_0000 >= 0
C_0019_cost_0030: cost_0019 >= 0
C_0019_cost_0031: cost_0019 >= 0
C_0019_cost_0032: cost_0019 >= 0
C_0019_cost_0033: cost_0019 >= 0
C_0019_cost_0034: cost_0019 >= 0
C_0019_cost_0035: cost_0019 >= 0
C_0019_cost_0036: cost_0019 >= 0
C_0019_linear_0000: - act_0000 + xi_0019_0000 = 32
C_0019_linear_0001: - act_0001 + xi_0019_0001 = 48
C_0019_linear_0002: - act_0002 + xi_0019_0002 = 18424
C_0019_linear_0003: - act_0003 + xi_0019_0003 = 1
C_0019_linear_0004: - act_0004 + xi_0019_0004 = 2
C_0019_linear_0005: - act_0005 + xi_0019_0005 = 1
C_0019_linear_0006: - act_0006 + xi_0019_0006 = 0
C_0019_linear_0007: - act_0007 + xi_0019_0007 = 1
C_0019_linear_0008: - act_0008 + xi_0019_0008 = 1
C_0019_linear_0009: - act_0009 + xi_0019_0009 = 0
C_0019_linear_0010: - act_0010 + xi_0019_0010 = 0
C_0019_linear_0011: - act_0011 + xi_0019_0011 = 1
C_0019_linear_0012: - act_0012 + xi_0019_0012 = 0
C_0019_linear_0013: - act_0013 + xi_0019_0013 = 0
C_0019_linear_0014: - act_0014 + xi_0019_0014 = 1
C_0019_linear_0015: - act_0015 + xi_0019_0015 = 0
C_0019_linear_0016: - act_0016 + xi_0019_0016 = 0
C_0019_linear_0017: - act_0017 + xi_0019_0017 = 1
C_0019_linear_0018: - act_0018 + xi_0019_0018 = 0
C_0019_linear_0019: - act_0019 + xi_0019_0019 = 0
C_0019_linear_0020: - act_0020 + xi_0019_0020 = 0
C_0019_linear_0021: - act_0021 + xi_0019_0021 = 0
C_0019_linear_0022: - act_0022 + xi_0019_0022 = 0
C_0019_linear_0023: - act_0023 + xi_0019_0023 = 0
C_0019_linear_0024: - act_0024 + xi_0019_0024 = 1
C_0019_linear_0025: - act_0025 + xi_0019_0025 = 0
C_0019_linear_0026: - act_0026 + xi_0019_0026 = 0
C_0019_linear_0027: - act_0027 + xi_0019_0027 = 0
C_0019_linear_0028: - act_0028 + xi_0019_0028 = 0
C_0019_linear_0029: - act_0029 + xi_0019_0029 = 0
C_0019_linear_0030: - act_0030 + xi_0019_0030 = 1
C_0019_linear_0031: - act_0031 + xi_0019_0031 = 0
C_0019_linear_0032: - act_0032 + xi_0019_0032 = 1
C_0019_linear_0033: - act_0033 + xi_0019_0033 = 0
C_0019_linear_0034: - act_0034 + xi_0019_0034 = 1
C_0019_linear_0035: - act_0035 + xi_0019_0035 = 0
C_0019_linear_0036: - act_0036 + xi_0019_0036 = 0
C_0019_linear_0037: - act_0037 + xi_0019_0037 = 1
C_0019_linear_0038: - act_0038 + xi_0019_0038 = 0
C_0019_linear_0039: - act_0039 + xi_0019_0039 = 0
C_0019_loss_ge: - 10000 omg_0019 - 0.0111828930987 xi_0019_0000
 + 0.0316585861132 xi_0019_0001 + 0.000106039552982 xi_0019_0002
 + 0.2872356913 xi_0019_0003 + 0.013030358965 xi_0019_0004
 + 0.240120705533 xi_0019_0005 + 0.442580447937 xi_0019_0006
 - 0.375980671537 xi_0019_0007 + 0.392374151169 xi_0019_0008
 + 1.06701819784 xi_0019_0009 - 0.942756746323 xi_0019_0010
 + 0.412027349402 xi_0019_0011 + 0.570359951286 xi_0019_0012
 - 0.852905494999 xi_0019_0013 - 0.323418189169 xi_0019_0014
 + 0.252938924417 xi_0019_0015 - 0.0388599557068 xi_0019_0016
 - 0.020417849004 xi_0019_0017 - 0.119001175529 xi_0019_0018
 + 0.47399163059 xi_0019_0019 - 0.445604107063 xi_0019_0020
 - 0.0184582213876 xi_0019_0021 + 0.307589905785 xi_0019_0022
 + 0.444474821864 xi_0019_0023 - 0.187382383206 xi_0019_0024
 + 0.383302875585 xi_0019_0025 - 0.750161596334 xi_0019_0026
 - 1.33170117681 xi_0019_0027 + 0.0190658885385 xi_0019_0028
 - 0.745784276999 xi_0019_0029 - 0.516231038044 xi_0019_0030
 - 0.409255825925 xi_0019_0031 - 0.0994375517393 xi_0019_0032
 - 0.734256048841 xi_0019_0033 - 0.253933375138 xi_0019_0034
 - 0.256674950149 xi_0019_0035 - 0.732341101218 xi_0019_0036
 - 0.86707443001 xi_0019_0037 - 0.319117177314 xi_0019_0038
 + 0.0697086420108 xi_0019_0039 >= -9998.75705057
C_0019_loss_le: - 10000 omg_0019 - 0.0111828930987 xi_0019_0000
 + 0.0316585861132 xi_0019_0001 + 0.000106039552982 xi_0019_0002
 + 0.2872356913 xi_0019_0003 + 0.013030358965 xi_0019_0004
 + 0.240120705533 xi_0019_0005 + 0.442580447937 xi_0019_0006
 - 0.375980671537 xi_0019_0007 + 0.392374151169 xi_0019_0008
 + 1.06701819784 xi_0019_0009 - 0.942756746323 xi_0019_0010
 + 0.412027349402 xi_0019_0011 + 0.570359951286 xi_0019_0012
 - 0.852905494999 xi_0019_0013 - 0.323418189169 xi_0019_0014
 + 0.252938924417 xi_0019_0015 - 0.0388599557068 xi_0019_0016
 - 0.020417849004 xi_0019_0017 - 0.119001175529 xi_0019_0018
 + 0.47399163059 xi_0019_0019 - 0.445604107063 xi_0019_0020
 - 0.0184582213876 xi_0019_0021 + 0.307589905785 xi_0019_0022
 + 0.444474821864 xi_0019_0023 - 0.187382383206 xi_0019_0024
 + 0.383302875585 xi_0019_0025 - 0.750161596334 xi_0019_0026
 - 1.33170117681 xi_0019_0027 + 0.0190658885385 xi_0019_0028
 - 0.745784276999 xi_0019_0029 - 0.516231038044 xi_0019_0030
 - 0.409255825925 xi_0019_0031 - 0.0994375517393 xi_0019_0032
 - 0.734256048841 xi_0019_0033 - 0.253933375138 xi_0019_0034
 - 0.256674950149 xi_0019_0035 - 0.732341101218 xi_0019_0036
 - 0.86707443001 xi_0019_0037 - 0.319117177314 xi_0019_0038
 + 0.0697086420108 xi_0019_0039 <= 1.24294941651
C_0020_cost_0001: cost_0020 - 0.0480200862104 pi_0001_0000
 - 0.0220147297214 pi_0001_0001 >= 0
C_0020_cost_0002: cost_0020 - 0.00530131652168 pi_0002_0000
 - 0.00509637978182 pi_0002_0001 - 0.00489152623542 pi_0002_0002
 - 0.00468675588336 pi_0002_0003 - 0.00448206872645 pi_0002_0004
 - 0.0042774647654 pi_0002_0005 - 0.00407294400078 pi_0002_0006
 - 0.00386850643311 pi_0002_0007 - 0.00366415206278 pi_0002_0008
 - 0.00345988089008 pi_0002_0009 - 0.00325569291522 pi_0002_0010
 - 0.00305158813828 pi_0002_0011 - 0.00284756655927 pi_0002_0012
 - 0.00264362817809 pi_0002_0013 - 0.00243977299453 pi_0002_0014
 - 0.00223600100829 pi_0002_0015 - 0.00203231221899 pi_0002_0016
 - 0.00182870662611 pi_0002_0017 - 0.00162518422908 pi_0002_0018
 - 0.0014217450272 pi_0002_0019 - 0.00121838901968 pi_0002_0020
 - 0.00101511620565 pi_0002_0021 - 0.000811926584109 pi_0002_0022
 - 0.000608820153996 pi_0002_0023 - 0.000405796914135 pi_0002_0024
 - 0.000202856863257 pi_0002_0025 >= 0
C_0020_cost_0003: cost_0020 >= 0
C_0020_cost_0004: cost_0020 >= 0
C_0020_cost_0005: cost_0020 >= 0
C_0020_cost_0006: cost_0020 >= 0
C_0020_cost_0007: cost_0020 >= 0
C_0020_cost_0008: cost_0020 >= 0
C_0020_cost_0009: cost_0020 >= 0
C_0020_cost_0010: cost_0020 >= 0
C_0020_cost_0011: cost_0020 >= 0
C_0020_cost_0012: cost_0020 >= 0
C_0020_cost_0013: cost_0020 >= 0
C_0020_cost_0014: cost_0020 >= 0
C_0020_cost_0015: cost_0020 >= 0
C_0020_cost_0016: cost_0020 >= 0
C_0020_cost_0017: cost_0020 >= 0
C_0020_cost_0018: cost_0020 >= 0
C_0020_cost_0019: cost_0020 >= 0
C_0020_cost_0020: cost_0020 >= 0
C_0020_cost_0021: cost_0020 >= 0
C_0020_cost_0022: cost_0020 >= 0
C_0020_cost_0023: cost_0020 >= 0
C_0020_cost_0024: cost_0020 >= 0
C_0020_cost_0025: cost_0020 >= 0
C_0020_cost_0026: cost_0020 - 0.0106666652041 pi_0026_0000 >= 0
C_0020_cost_0027: cost_0020 >= 0
C_0020_cost_0028: cost_0020 >= 0
C_0020_cost_0029: cost_0020 - 0.426666385001 pi_0029_0000 >= 0
C_0020_cost_0030: cost_0020 >= 0
C_0020_cost_0031: cost_0020 >= 0
C_0020_cost_0032: cost_0020 >= 0
C_0020_cost_0033: cost_0020 >= 0
C_0020_cost_0034: cost_0020 >= 0
C_0020_cost_0035: cost_0020 >= 0
C_0020_cost_0036: cost_0020 >= 0
C_0020_linear_0000: - act_0000 + xi_0020_0000 = 21
C_0020_linear_0001: - act_0001 + xi_0020_0001 = 27
C_0020_linear_0002: - act_0002 + xi_0020_0002 = 2570
C_0020_linear_0003: - act_0003 + xi_0020_0003 = 3
C_0020_linear_0004: - act_0004 + xi_0020_0004 = 3
C_0020_linear_0005: - act_0005 + xi_0020_0005 = 1
C_0020_linear_0006: - act_0006 + xi_0020_0006 = 0
C_0020_linear_0007: - act_0007 + xi_0020_0007 = 0
C_0020_linear_0008: - act_0008 + xi_0020_0008 = 1
C_0020_linear_0009: - act_0009 + xi_0020_0009 = 0
C_0020_linear_0010: - act_0010 + xi_0020_0010 = 0
C_0020_linear_0011: - act_0011 + xi_0020_0011 = 0
C_0020_linear_0012: - act_0012 + xi_0020_0012 = 0
C_0020_linear_0013: - act_0013 + xi_0020_0013 = 0
C_0020_linear_0014: - act_0014 + xi_0020_0014 = 0
C_0020_linear_0015: - act_0015 + xi_0020_0015 = 1
C_0020_linear_0016: - act_0016 + xi_0020_0016 = 0
C_0020_linear_0017: - act_0017 + xi_0020_0017 = 1
C_0020_linear_0018: - act_0018 + xi_0020_0018 = 0
C_0020_linear_0019: - act_0019 + xi_0020_0019 = 0
C_0020_linear_0020: - act_0020 + xi_0020_0020 = 0
C_0020_linear_0021: - act_0021 + xi_0020_0021 = 0
C_0020_linear_0022: - act_0022 + xi_0020_0022 = 0
C_0020_linear_0023: - act_0023 + xi_0020_0023 = 1
C_0020_linear_0024: - act_0024 + xi_0020_0024 = 0
C_0020_linear_0025: - act_0025 + xi_0020_0025 = 0
C_0020_linear_0026: - act_0026 + xi_0020_0026 = 0
C_0020_linear_0027: - act_0027 + xi_0020_0027 = 0
C_0020_linear_0028: - act_0028 + xi_0020_0028 = 0
C_0020_linear_0029: - act_0029 + xi_0020_0029 = 0
C_0020_linear_0030: - act_0030 + xi_0020_0030 = 1
C_0020_linear_0031: - act_0031 + xi_0020_0031 = 1
C_0020_linear_0032: - act_0032 + xi_0020_0032 = 0
C_0020_linear_0033: - act_0033 + xi_0020_0033 = 0
C_0020_linear_0034: - act_0034 + xi_0020_0034 = 1
C_0020_linear_0035: - act_0035 + xi_0020_0035 = 0
C_0020_linear_0036: - act_0036 + xi_0020_0036 = 0
C_0020_linear_0037: - act_0037 + xi_0020_0037 = 0
C_0020_linear_0038: - act_0038 + xi_0020_0038 = 0
C_0020_linear_0039: - act_0039 + xi_0020_0039 = 0
C_0020_loss_ge: - 10000 omg_0020 - 0.0111828930987 xi_0020_0000
 + 0.0316585861132 xi_0020_0001 + 0.000106039552982 xi_0020_0002
 + 0.2872356913 xi_0020_0003 + 0.013030358965 xi_0020_0004
 + 0.240120705533 xi_0020_0005 + 0.442580447937 xi_0020_0006
 - 0.375980671537 xi_0020_0007 + 0.392374151169 xi_0020_0008
 + 1.06701819784 xi_0020_0009 - 0.942756746323 xi_0020_0010
 + 0.412027349402 xi_0020_0011 + 0.570359951286 xi_0020_0012
 - 0.852905494999 xi_0020_0013 - 0.323418189169 xi_0020_0014
 + 0.252938924417 xi_0020_0015 - 0.0388599557068 xi_0020_0016
 - 0.020417849004 xi_0020_0017 - 0.119001175529 xi_0020_0018
 + 0.47399163059 xi_0020_0019 - 0.445604107063 xi_0020_0020
 - 0.0184582213876 xi_0020_0021 + 0.307589905785 xi_0020_0022
 + 0.444474821864 xi_0020_0023 - 0.187382383206 xi_0020_0024
 + 0.383302875585 xi_0020_0025 - 0.750161596334 xi_0020_0026
 - 1.33170117681 xi_0020_0027 + 0.0190658885385 xi_0020_0028
 - 0.745784276999 xi_0020_0029 - 0.516231038044 xi_0020_0030
 - 0.409255825925 xi_0020_0031 - 0.0994375517393 xi_0020_0032
 - 0.734256048841 xi_0020_0033 - 0.253933375138 xi_0020_0034
 - 0.256674950149 xi_0020_0035 - 0.732341101218 xi_0020_0036
 - 0.86707443001 xi_0020_0037 - 0.319117177314 xi_0020_0038
 + 0.0697086420108 xi_0020_0039 >= -9998.75705057
C_0020_loss_le: - 10000 omg_0020 - 0.0111828930987 xi_0020_0000
 + 0.0316585861132 xi_0020_0001 + 0.000106039552982 xi_0020_0002
 + 0.2872356913 xi_0020_0003 + 0.013030358965 xi_0020_0004
 + 0.240120705533 xi_0020_0005 + 0.442580447937 xi_0020_0006
 - 0.375980671537 xi_0020_0007 + 0.392374151169 xi_0020_0008
 + 1.06701819784 xi_0020_0009 - 0.942756746323 xi_0020_0010
 + 0.412027349402 xi_0020_0011 + 0.570359951286 xi_0020_0012
 - 0.852905494999 xi_0020_0013 - 0.323418189169 xi_0020_0014
 + 0.252938924417 xi_0020_0015 - 0.0388599557068 xi_0020_0016
 - 0.020417849004 xi_0020_0017 - 0.119001175529 xi_0020_0018
 + 0.47399163059 xi_0020_0019 - 0.445604107063 xi_0020_0020
 - 0.0184582213876 xi_0020_0021 + 0.307589905785 xi_0020_0022
 + 0.444474821864 xi_0020_0023 - 0.187382383206 xi_0020_0024
 + 0.383302875585 xi_0020_0025 - 0.750161596334 xi_0020_0026
 - 1.33170117681 xi_0020_0027 + 0.0190658885385 xi_0020_0028
 - 0.745784276999 xi_0020_0029 - 0.516231038044 xi_0020_0030
 - 0.409255825925 xi_0020_0031 - 0.0994375517393 xi_0020_0032
 - 0.734256048841 xi_0020_0033 - 0.253933375138 xi_0020_0034
 - 0.256674950149 xi_0020_0035 - 0.732341101218 xi_0020_0036
 - 0.86707443001 xi_0020_0037 - 0.319117177314 xi_0020_0038
 + 0.0697086420108 xi_0020_0039 <= 1.24294941651
C_0021_cost_0001: cost_0021 - 0.0104414532292 pi_0001_0000
 - 0.00543811158109 pi_0001_0001 >= 0
C_0021_cost_0002: cost_0021 - 0.00170590826323 pi_0002_0000
 - 0.00163982498923 pi_0002_0001 - 0.00157377970183 pi_0002_0002
 - 0.00150777236698 pi_0002_0003 - 0.00144180295062 pi_0002_0004
 - 0.00137587141866 pi_0002_0005 - 0.001309977737 pi_0002_0006
 - 0.00124412187151 pi_0002_0007 - 0.00117830378807 pi_0002_0008
 - 0.00111252345252 pi_0002_0009 - 0.00104678083069 pi_0002_0010
 - 0.000981075888392 pi_0002_0011 - 0.000915408591425 pi_0002_0012
 - 0.000849778905568 pi_0002_0013 - 0.000784186796584 pi_0002_0014
 - 0.00071863223022 pi_0002_0015 - 0.000653115172206 pi_0002_0016
 - 0.000587635588254 pi_0002_0017 - 0.000522193444062 pi_0002_0018
 - 0.000456788705309 pi_0002_0019 - 0.000391421337659 pi_0002_0020
 - 0.000326091306758 pi_0002_0021 - 0.000260798578238 pi_0002_0022
 - 0.000195543117713 pi_0002_0023 - 0.00013032489078 pi_0002_0024
 - 6.51438630204e-05 pi_0002_0025 >= 0
C_0021_cost_0003: cost_0021 >= 0
C_0021_cost_0004: cost_0021 >= 0
C_0021_cost_0005: cost_0021 >= 0
C_0021_cost_0006: cost_0021 >= 0
C_0021_cost_0007: cost_0021 >= 0
C_0021_cost_0008: cost_0021 >= 0
C_0021_cost_0009: cost_0021 >= 0
C_0021_cost_0010: cost_0021 >= 0
C_0021_cost_0011: cost_0021 >= 0
C_0021_cost_0012: cost_0021 >= 0
C_0021_cost_0013: cost_0021 >= 0
C_0021_cost_0014: cost_0021 >= 0
C_0021_cost_0015: cost_0021 >= 0
C_0021_cost_0016: cost_0021 >= 0
C_0021_cost_0017: cost_0021 >= 0
C_0021_cost_0018: cost_0021 >= 0
C_0021_cost_0019: cost_0021 >= 0
C_0021_cost_0020: cost_0021 >= 0
C_0021_cost_0021: cost_0021 >= 0
C_0021_cost_0022: cost_0021 >= 0
C_0021_cost_0023: cost_0021 >= 0
C_0021_cost_0024: cost_0021 >= 0
C_0021_cost_0025: cost_0021 >= 0
C_0021_cost_0026: cost_0021 - 0.0106666652041 pi_0026_0000 >= 0
C_0021_cost_0027: cost_0021 >= 0
C_0021_cost_0028: cost_0021 >= 0
C_0021_cost_0029: cost_0021 - 0.426666385001 pi_0029_0000 >= 0
C_0021_cost_0030: cost_0021 >= 0
C_0021_cost_0031: cost_0021 >= 0
C_0021_cost_0032: cost_0021 >= 0
C_0021_cost_0033: cost_0021 >= 0
C_0021_cost_0034: cost_0021 >= 0
C_0021_cost_0035: cost_0021 >= 0
C_0021_cost_0036: cost_0021 >= 0
C_0021_linear_0000: - act_0000 + xi_0021_0000 = 25
C_0021_linear_0001: - act_0001 + xi_0021_0001 = 45
C_0021_linear_0002: - act_0002 + xi_0021_0002 = 4746
C_0021_linear_0003: - act_0003 + xi_0021_0003 = 4
C_0021_linear_0004: - act_0004 + xi_0021_0004 = 2
C_0021_linear_0005: - act_0005 + xi_0021_0005 = 2
C_0021_linear_0006: - act_0006 + xi_0021_0006 = 0
C_0021_linear_0007: - act_0007 + xi_0021_0007 = 0
C_0021_linear_0008: - act_0008 + xi_0021_0008 = 1
C_0021_linear_0009: - act_0009 + xi_0021_0009 = 0
C_0021_linear_0010: - act_0010 + xi_0021_0010 = 1
C_0021_linear_0011: - act_0011 + xi_0021_0011 = 0
C_0021_linear_0012: - act_0012 + xi_0021_0012 = 0
C_0021_linear_0013: - act_0013 + xi_0021_0013 = 0
C_0021_linear_0014: - act_0014 + xi_0021_0014 = 1
C_0021_linear_0015: - act_0015 + xi_0021_0015 = 0
C_0021_linear_0016: - act_0016 + xi_0021_0016 = 0
C_0021_linear_0017: - act_0017 + xi_0021_0017 = 0
C_0021_linear_0018: - act_0018 + xi_0021_0018 = 0
C_0021_linear_0019: - act_0019 + xi_0021_0019 = 0
C_0021_linear_0020: - act_0020 + xi_0021_0020 = 1
C_0021_linear_0021: - act_0021 + xi_0021_0021 = 0
C_0021_linear_0022: - act_0022 + xi_0021_0022 = 0
C_0021_linear_0023: - act_0023 + xi_0021_0023 = 0
C_0021_linear_0024: - act_0024 + xi_0021_0024 = 0
C_0021_linear_0025: - act_0025 + xi_0021_0025 = 0
C_0021_linear_0026: - act_0026 + xi_0021_0026 = 0
C_0021_linear_0027: - act_0027 + xi_0021_0027 = 0
C_0021_linear_0028: - act_0028 + xi_0021_0028 = 1
C_0021_linear_0029: - act_0029 + xi_0021_0029 = 0
C_0021_linear_0030: - act_0030 + xi_0021_0030 = 0
C_0021_linear_0031: - act_0031 + xi_0021_0031 = 0
C_0021_linear_0032: - act_0032 + xi_0021_0032 = 1
C_0021_linear_0033: - act_0033 + xi_0021_0033 = 0
C_0021_linear_0034: - act_0034 + xi_0021_0034 = 1
C_0021_linear_0035: - act_0035 + xi_0021_0035 = 0
C_0021_linear_0036: - act_0036 + xi_0021_0036 = 0
C_0021_linear_0037: - act_0037 + xi_0021_0037 = 0
C_0021_linear_0038: - act_0038 + xi_0021_0038 = 1
C_0021_linear_0039: - act_0039 + xi_0021_0039 = 1
C_0021_loss_ge: - 10000 omg_0021 - 0.0111828930987 xi_0021_0000
 + 0.0316585861132 xi_0021_0001 + 0.000106039552982 xi_0021_0002
 + 0.2872356913 xi_0021_0003 + 0.013030358965 xi_0021_0004
 + 0.240120705533 xi_0021_0005 + 0.442580447937 xi_0021_0006
 - 0.375980671537 xi_0021_0007 + 0.392374151169 xi_0021_0008
 + 1.06701819784 xi_0021_0009 - 0.942756746323 xi_0021_0010
 + 0.412027349402 xi_0021_0011 + 0.570359951286 xi_0021_0012
 - 0.852905494999 xi_0021_0013 - 0.323418189169 xi_0021_0014
 + 0.252938924417 xi_0021_0015 - 0.0388599557068 xi_0021_0016
 - 0.020417849004 xi_0021_0017 - 0.119001175529 xi_0021_0018
 + 0.47399163059 xi_0021_0019 - 0.445604107063 xi_0021_0020
 - 0.0184582213876 xi_0021_0021 + 0.307589905785 xi_0021_0022
 + 0.444474821864 xi_0021_0023 - 0.187382383206 xi_0021_0024
 + 0.383302875585 xi_0021_0025 - 0.750161596334 xi_0021_0026
 - 1.33170117681 xi_0021_0027 + 0.0190658885385 xi_0021_0028
 - 0.745784276999 xi_0021_0029 - 0.516231038044 xi_0021_0030
 - 0.409255825925 xi_0021_0031 - 0.0994375517393 xi_0021_0032
 - 0.734256048841 xi_0021_0033 - 0.253933375138 xi_0021_0034
 - 0.256674950149 xi_0021_0035 - 0.732341101218 xi_0021_0036
 - 0.86707443001 xi_0021_0037 - 0.319117177314 xi_0021_0038
 + 0.0697086420108 xi_0021_0039 >= -9998.75705057
C_0021_loss_le: - 10000 omg_0021 - 0.0111828930987 xi_0021_0000
 + 0.0316585861132 xi_0021_0001 + 0.000106039552982 xi_0021_0002
 + 0.2872356913 xi_0021_0003 + 0.013030358965 xi_0021_0004
 + 0.240120705533 xi_0021_0005 + 0.442580447937 xi_0021_0006
 - 0.375980671537 xi_0021_0007 + 0.392374151169 xi_0021_0008
 + 1.06701819784 xi_0021_0009 - 0.942756746323 xi_0021_0010
 + 0.412027349402 xi_0021_0011 + 0.570359951286 xi_0021_0012
 - 0.852905494999 xi_0021_0013 - 0.323418189169 xi_0021_0014
 + 0.252938924417 xi_0021_0015 - 0.0388599557068 xi_0021_0016
 - 0.020417849004 xi_0021_0017 - 0.119001175529 xi_0021_0018
 + 0.47399163059 xi_0021_0019 - 0.445604107063 xi_0021_0020
 - 0.0184582213876 xi_0021_0021 + 0.307589905785 xi_0021_0022
 + 0.444474821864 xi_0021_0023 - 0.187382383206 xi_0021_0024
 + 0.383302875585 xi_0021_0025 - 0.750161596334 xi_0021_0026
 - 1.33170117681 xi_0021_0027 + 0.0190658885385 xi_0021_0028
 - 0.745784276999 xi_0021_0029 - 0.516231038044 xi_0021_0030
 - 0.409255825925 xi_0021_0031 - 0.0994375517393 xi_0021_0032
 - 0.734256048841 xi_0021_0033 - 0.253933375138 xi_0021_0034
 - 0.256674950149 xi_0021_0035 - 0.732341101218 xi_0021_0036
 - 0.86707443001 xi_0021_0037 - 0.319117177314 xi_0021_0038
 + 0.0697086420108 xi_0021_0039 <= 1.24294941651
C_0022_cost_0001: cost_0022 - 0.0639671434312 pi_0001_0000
 - 0.0315831062354 pi_0001_0001 >= 0
C_0022_cost_0002: cost_0022 - 0.00671183190512 pi_0002_0000
 - 0.00645400965126 pi_0002_0001 - 0.00619615976117 pi_0002_0002
 - 0.00593828243857 pi_0002_0003 - 0.0056803778871 pi_0002_0004
 - 0.00542244631033 pi_0002_0005 - 0.00516448791174 pi_0002_0006
 - 0.00490650289475 pi_0002_0007 - 0.00464849146268 pi_0002_0008
 - 0.00439045381877 pi_0002_0009 - 0.0041323901662 pi_0002_0010
 - 0.00387430070803 pi_0002_0011 - 0.00361618564727 pi_0002_0012
 - 0.00335804518683 pi_0002_0013 - 0.00309987952955 pi_0002_0014
 - 0.00284168887816 pi_0002_0015 - 0.00258347343532 pi_0002_0016
 - 0.00232523340361 pi_0002_0017 - 0.00206696898552 pi_0002_0018
 - 0.00180868038344 pi_0002_0019 - 0.00155036779968 pi_0002_0020
 - 0.00129203143646 pi_0002_0021 - 0.00103367149592 pi_0002_0022
 - 0.000775288180101 pi_0002_0023 - 0.000516881690948 pi_0002_0024
 - 0.000258452230325 pi_0002_0025 >= 0
C_0022_cost_0003: cost_0022 >= 0
C_0022_cost_0004: cost_0022 >= 0
C_0022_cost_0005: cost_0022 >= 0
C_0022_cost_0006: cost_0022 >= 0
C_0022_cost_0007: cost_0022 >= 0
C_0022_cost_0008: cost_0022 >= 0
C_0022_cost_0009: cost_0022 >= 0
C_0022_cost_0010: cost_0022 >= 0
C_0022_cost_0011: cost_0022 >= 0
C_0022_cost_0012: cost_0022 >= 0
C_0022_cost_0013: cost_0022 >= 0
C_0022_cost_0014: cost_0022 >= 0
C_0022_cost_0015: cost_0022 >= 0
C_0022_cost_0016: cost_0022 >= 0
C_0022_cost_0017: cost_0022 >= 0
C_0022_cost_0018: cost_0022 >= 0
C_0022_cost_0019: cost_0022 >= 0
C_0022_cost_0020: cost_0022 >= 0
C_0022_cost_0021: cost_0022 >= 0
C_0022_cost_0022: cost_0022 >= 0
C_0022_cost_0023: cost_0022 >= 0
C_0022_cost_0024: cost_0022 >= 0
C_0022_cost_0025: cost_0022 >= 0
C_0022_cost_0026: cost_0022 - 0.0106666652041 pi_0026_0000 >= 0
C_0022_cost_0027: cost_0022 >= 0
C_0022_cost_0028: cost_0022 >= 0
C_0022_cost_0029: cost_0022 - 0.426666385001 pi_0029_0000 >= 0
C_0022_cost_0030: cost_0022 >= 0
C_0022_cost_0031: cost_0022 >= 0
C_0022_cost_0032: cost_0022 >= 0
C_0022_cost_0033: cost_0022 >= 0
C_0022_cost_0034: cost_0022 >= 0
C_0022_cost_0035: cost_0022 >= 0
C_0022_cost_0036: cost_0022 >= 0
C_0022_linear_0000: - act_0000 + xi_0022_0000 = 33
C_0022_linear_0001: - act_0001 + xi_0022_0001 = 24
C_0022_linear_0002: - act_0002 + xi_0022_0002 = 1474
C_0022_linear_0003: - act_0003 + xi_0022_0003 = 4
C_0022_linear_0004: - act_0004 + xi_0022_0004 = 3
C_0022_linear_0005: - act_0005 + xi_0022_0005 = 1
C_0022_linear_0006: - act_0006 + xi_0022_0006 = 0
C_0022_linear_0007: - act_0007 + xi_0022_0007 = 1
C_0022_linear_0008: - act_0008 + xi_0022_0008 = 1
C_0022_linear_0009: - act_0009 + xi_0022_0009 = 0
C_0022_linear_0010: - act_0010 + xi_0022_0010 = 0
C_0022_linear_0011: - act_0011 + xi_0022_0011 = 0
C_0022_linear_0012: - act_0012 + xi_0022_0012 = 0
C_0022_linear_0013: - act_0013 + xi_0022_0013 = 0
C_0022_linear_0014: - act_0014 + xi_0022_0014 = 1
C_0022_linear_0015: - act_0015 + xi_0022_0015 = 0
C_0022_linear_0016: - act_0016 + xi_0022_0016 = 0
C_0022_linear_0017: - act_0017 + xi_0022_0017 = 1
C_0022_linear_0018: - act_0018 + xi_0022_0018 = 0
C_0022_linear_0019: - act_0019 + xi_0022_0019 = 0
C_0022_linear_0020: - act_0020 + xi_0022_0020 = 0
C_0022_linear_0021: - act_0021 + xi_0022_0021 = 0
C_0022_linear_0022: - act_0022 + xi_0022_0022 = 0
C_0022_linear_0023: - act_0023 + xi_0022_0023 = 1
C_0022_linear_0024: - act_0024 + xi_0022_0024 = 0
C_0022_linear_0025: - act_0025 + xi_0022_0025 = 0
C_0022_linear_0026: - act_0026 + xi_0022_0026 = 0
C_0022_linear_0027: - act_0027 + xi_0022_0027 = 0
C_0022_linear_0028: - act_0028 + xi_0022_0028 = 1
C_0022_linear_0029: - act_0029 + xi_0022_0029 = 0
C_0022_linear_0030: - act_0030 + xi_0022_0030 = 0
C_0022_linear_0031: - act_0031 + xi_0022_0031 = 1
C_0022_linear_0032: - act_0032 + xi_0022_0032 = 0
C_0022_linear_0033: - act_0033 + xi_0022_0033 = 0
C_0022_linear_0034: - act_0034 + xi_0022_0034 = 0
C_0022_linear_0035: - act_0035 + xi_0022_0035 = 1
C_0022_linear_0036: - act_0036 + xi_0022_0036 = 0
C_0022_linear_0037: - act_0037 + xi_0022_0037 = 0
C_0022_linear_0038: - act_0038 + xi_0022_0038 = 0
C_0022_linear_0039: - act_0039 + xi_0022_0039 = 1
C_0022_loss_ge: - 10000 omg_0022 - 0.0111828930987 xi_0022_0000
 + 0.0316585861132 xi_0022_0001 + 0.000106039552982 xi_0022_0002
 + 0.2872356913 xi_0022_0003 + 0.013030358965 xi_0022_0004
 + 0.240120705533 xi_0022_0005 + 0.442580447937 xi_0022_0006
 - 0.375980671537 xi_0022_0007 + 0.392374151169 xi_0022_0008
 + 1.06701819784 xi_0022_0009 - 0.942756746323 xi_0022_0010
 + 0.412027349402 xi_0022_0011 + 0.570359951286 xi_0022_0012
 - 0.852905494999 xi_0022_0013 - 0.323418189169 xi_0022_0014
 + 0.252938924417 xi_0022_0015 - 0.0388599557068 xi_0022_0016
 - 0.020417849004 xi_0022_0017 - 0.119001175529 xi_0022_0018
 + 0.47399163059 xi_0022_0019 - 0.445604107063 xi_0022_0020
 - 0.0184582213876 xi_0022_0021 + 0.307589905785 xi_0022_0022
 + 0.444474821864 xi_0022_0023 - 0.187382383206 xi_0022_0024
 + 0.383302875585 xi_0022_0025 - 0.750161596334 xi_0022_0026
 - 1.33170117681 xi_0022_0027 + 0.0190658885385 xi_0022_0028
 - 0.745784276999 xi_0022_0029 - 0.516231038044 xi_0022_0030
 - 0.409255825925 xi_0022_0031 - 0.0994375517393 xi_0022_0032
 - 0.734256048841 xi_0022_0033 - 0.253933375138 xi_0022_0034
 - 0.256674950149 xi_0022_0035 - 0.732341101218 xi_0022_0036
 - 0.86707443001 xi_0022_0037 - 0.319117177314 xi_0022_0038
 + 0.0697086420108 xi_0022_0039 >= -9998.75705057
C_0022_loss_le: - 10000 omg_0022 - 0.0111828930987 xi_0022_0000
 + 0.0316585861132 xi_0022_0001 + 0.000106039552982 xi_0022_0002
 + 0.2872356913 xi_0022_0003 + 0.013030358965 xi_0022_0004
 + 0.240120705533 xi_0022_0005 + 0.442580447937 xi_0022_0006
 - 0.375980671537 xi_0022_0007 + 0.392374151169 xi_0022_0008
 + 1.06701819784 xi_0022_0009 - 0.942756746323 xi_0022_0010
 + 0.412027349402 xi_0022_0011 + 0.570359951286 xi_0022_0012
 - 0.852905494999 xi_0022_0013 - 0.323418189169 xi_0022_0014
 + 0.252938924417 xi_0022_0015 - 0.0388599557068 xi_0022_0016
 - 0.020417849004 xi_0022_0017 - 0.119001175529 xi_0022_0018
 + 0.47399163059 xi_0022_0019 - 0.445604107063 xi_0022_0020
 - 0.0184582213876 xi_0022_0021 + 0.307589905785 xi_0022_0022
 + 0.444474821864 xi_0022_0023 - 0.187382383206 xi_0022_0024
 + 0.383302875585 xi_0022_0025 - 0.750161596334 xi_0022_0026
 - 1.33170117681 xi_0022_0027 + 0.0190658885385 xi_0022_0028
 - 0.745784276999 xi_0022_0029 - 0.516231038044 xi_0022_0030
 - 0.409255825925 xi_0022_0031 - 0.0994375517393 xi_0022_0032
 - 0.734256048841 xi_0022_0033 - 0.253933375138 xi_0022_0034
 - 0.256674950149 xi_0022_0035 - 0.732341101218 xi_0022_0036
 - 0.86707443001 xi_0022_0037 - 0.319117177314 xi_0022_0038
 + 0.0697086420108 xi_0022_0039 <= 1.24294941651
C_0023_cost_0001: cost_0023 - 0.00352138274643 pi_0001_0000
 - 0.00177674940945 pi_0001_0001 >= 0
C_0023_cost_0002: cost_0023 - 0.00111537789205 pi_0002_0000
 - 0.00107241889378 pi_0002_0001 - 0.00102946460754 pi_0002_0002
 - 0.000986515042789 pi_0002_0003 - 0.000943570208976 pi_0002_0004
 - 0.000900630115558 pi_0002_0005 - 0.000857694772001 pi_0002_0006
 - 0.000814764187774 pi_0002_0007 - 0.000771838372355 pi_0002_0008
 - 0.000728917335227 pi_0002_0009 - 0.000686001085879 pi_0002_0010
 - 0.000643089633806 pi_0002_0011 - 0.00060018298851 pi_0002_0012
 - 0.000557281159497 pi_0002_0013 - 0.000514384156281 pi_0002_0014
 - 0.00047149198838 pi_0002_0015 - 0.000428604665317 pi_0002_0016
 - 0.000385722196623 pi_0002_0017 - 0.000342844591833 pi_0002_0018
 - 0.000299971860487 pi_0002_0019 - 0.000257104012131 pi_0002_0020
 - 0.000214241056315 pi_0002_0021 - 0.000171383002597 pi_0002_0022
 - 0.000128529860538 pi_0002_0023 - 8.56816397037e-05 pi_0002_0024
 - 4.28383496656e-05 pi_0002_0025 >= 0
C_0023_cost_0003: cost_0023 >= 0
C_0023_cost_0004: cost_0023 >= 0
C_0023_cost_0005: cost_0023 >= 0
C_0023_cost_0006: cost_0023 >= 0
C_0023_cost_0007: cost_0023 >= 0
C_0023_cost_0008: cost_0023 >= 0
C_0023_cost_0009: cost_0023 >= 0
C_0023_cost_0010: cost_0023 >= 0
C_0023_cost_0011: cost_0023 >= 0
C_0023_cost_0012: cost_0023 >= 0
C_0023_cost_0013: cost_0023 >= 0
C_0023_cost_0014: cost_0023 >= 0
C_0023_cost_0015: cost_0023 >= 0
C_0023_cost_0016: cost_0023 >= 0
C_0023_cost_0017: cost_0023 >= 0
C_0023_cost_0018: cost_0023 >= 0
C_0023_cost_0019: cost_0023 >= 0
C_0023_cost_0020: cost_0023 >= 0
C_0023_cost_0021: cost_0023 >= 0
C_0023_cost_0022: cost_0023 >= 0
C_0023_cost_0023: cost_0023 >= 0
C_0023_cost_0024: cost_0023 >= 0
C_0023_cost_0025: cost_0023 >= 0
C_0023_cost_0026: cost_0023 - 0.0106666652041 pi_0026_0000 >= 0
C_0023_cost_0027: cost_0023 >= 0
C_0023_cost_0028: cost_0023 >= 0
C_0023_cost_0029: cost_0023 - 0.426666385001 pi_0029_0000 >= 0
C_0023_cost_0030: cost_0023 >= 0
C_0023_cost_0031: cost_0023 >= 0
C_0023_cost_0032: cost_0023 >= 0
C_0023_cost_0033: cost_0023 >= 0
C_0023_cost_0034: cost_0023 >= 0
C_0023_cost_0035: cost_0023 >= 0
C_0023_cost_0036: cost_0023 >= 0
C_0023_linear_0000: - act_0000 + xi_0023_0000 = 34
C_0023_linear_0001: - act_0001 + xi_0023_0001 = 60
C_0023_linear_0002: - act_0002 + xi_0023_0002 = 6527
C_0023_linear_0003: - act_0003 + xi_0023_0003 = 4
C_0023_linear_0004: - act_0004 + xi_0023_0004 = 4
C_0023_linear_0005: - act_0005 + xi_0023_0005 = 1
C_0023_linear_0006: - act_0006 + xi_0023_0006 = 1
C_0023_linear_0007: - act_0007 + xi_0023_0007 = 1
C_0023_linear_0008: - act_0008 + xi_0023_0008 = 1
C_0023_linear_0009: - act_0009 + xi_0023_0009 = 0
C_0023_linear_0010: - act_0010 + xi_0023_0010 = 0
C_0023_linear_0011: - act_0011 + xi_0023_0011 = 0
C_0023_linear_0012: - act_0012 + xi_0023_0012 = 0
C_0023_linear_0013: - act_0013 + xi_0023_0013 = 0
C_0023_linear_0014: - act_0014 + xi_0023_0014 = 0
C_0023_linear_0015: - act_0015 + xi_0023_0015 = 0
C_0023_linear_0016: - act_0016 + xi_0023_0016 = 0
C_0023_linear_0017: - act_0017 + xi_0023_0017 = 1
C_0023_linear_0018: - act_0018 + xi_0023_0018 = 0
C_0023_linear_0019: - act_0019 + xi_0023_0019 = 0
C_0023_linear_0020: - act_0020 + xi_0023_0020 = 0
C_0023_linear_0021: - act_0021 + xi_0023_0021 = 0
C_0023_linear_0022: - act_0022 + xi_0023_0022 = 0
C_0023_linear_0023: - act_0023 + xi_0023_0023 = 1
C_0023_linear_0024: - act_0024 + xi_0023_0024 = 0
C_0023_linear_0025: - act_0025 + xi_0023_0025 = 0
C_0023_linear_0026: - act_0026 + xi_0023_0026 = 0
C_0023_linear_0027: - act_0027 + xi_0023_0027 = 0
C_0023_linear_0028: - act_0028 + xi_0023_0028 = 0
C_0023_linear_0029: - act_0029 + xi_0023_0029 = 0
C_0023_linear_0030: - act_0030 + xi_0023_0030 = 1
C_0023_linear_0031: - act_0031 + xi_0023_0031 = 1
C_0023_linear_0032: - act_0032 + xi_0023_0032 = 0
C_0023_linear_0033: - act_0033 + xi_0023_0033 = 0
C_0023_linear_0034: - act_0034 + xi_0023_0034 = 1
C_0023_linear_0035: - act_0035 + xi_0023_0035 = 0
C_0023_linear_0036: - act_0036 + xi_0023_0036 = 0
C_0023_linear_0037: - act_0037 + xi_0023_0037 = 0
C_0023_linear_0038: - act_0038 + xi_0023_0038 = 1
C_0023_linear_0039: - act_0039 + xi_0023_0039 = 1
C_0023_loss_ge: - 10000 omg_0023 - 0.0111828930987 xi_0023_0000
 + 0.0316585861132 xi_0023_0001 + 0.000106039552982 xi_0023_0002
 + 0.2872356913 xi_0023_0003 + 0.013030358965 xi_0023_0004
 + 0.240120705533 xi_0023_0005 + 0.442580447937 xi_0023_0006
 - 0.375980671537 xi_0023_0007 + 0.392374151169 xi_0023_0008
 + 1.06701819784 xi_0023_0009 - 0.942756746323 xi_0023_0010
 + 0.412027349402 xi_0023_0011 + 0.570359951286 xi_0023_0012
 - 0.852905494999 xi_0023_0013 - 0.323418189169 xi_0023_0014
 + 0.252938924417 xi_0023_0015 - 0.0388599557068 xi_0023_0016
 - 0.020417849004 xi_0023_0017 - 0.119001175529 xi_0023_0018
 + 0.47399163059 xi_0023_0019 - 0.445604107063 xi_0023_0020
 - 0.0184582213876 xi_0023_0021 + 0.307589905785 xi_0023_0022
 + 0.444474821864 xi_0023_0023 - 0.187382383206 xi_0023_0024
 + 0.383302875585 xi_0023_0025 - 0.750161596334 xi_0023_0026
 - 1.33170117681 xi_0023_0027 + 0.0190658885385 xi_0023_0028
 - 0.745784276999 xi_0023_0029 - 0.516231038044 xi_0023_0030
 - 0.409255825925 xi_0023_0031 - 0.0994375517393 xi_0023_0032
 - 0.734256048841 xi_0023_0033 - 0.253933375138 xi_0023_0034
 - 0.256674950149 xi_0023_0035 - 0.732341101218 xi_0023_0036
 - 0.86707443001 xi_0023_0037 - 0.319117177314 xi_0023_0038
 + 0.0697086420108 xi_0023_0039 >= -9998.75705057
C_0023_loss_le: - 10000 omg_0023 - 0.0111828930987 xi_0023_0000
 + 0.0316585861132 xi_0023_0001 + 0.000106039552982 xi_0023_0002
 + 0.2872356913 xi_0023_0003 + 0.013030358965 xi_0023_0004
 + 0.240120705533 xi_0023_0005 + 0.442580447937 xi_0023_0006
 - 0.375980671537 xi_0023_0007 + 0.392374151169 xi_0023_0008
 + 1.06701819784 xi_0023_0009 - 0.942756746323 xi_0023_0010
 + 0.412027349402 xi_0023_0011 + 0.570359951286 xi_0023_0012
 - 0.852905494999 xi_0023_0013 - 0.323418189169 xi_0023_0014
 + 0.252938924417 xi_0023_0015 - 0.0388599557068 xi_0023_0016
 - 0.020417849004 xi_0023_0017 - 0.119001175529 xi_0023_0018
 + 0.47399163059 xi_0023_0019 - 0.445604107063 xi_0023_0020
 - 0.0184582213876 xi_0023_0021 + 0.307589905785 xi_0023_0022
 + 0.444474821864 xi_0023_0023 - 0.187382383206 xi_0023_0024
 + 0.383302875585 xi_0023_0025 - 0.750161596334 xi_0023_0026
 - 1.33170117681 xi_0023_0027 + 0.0190658885385 xi_0023_0028
 - 0.745784276999 xi_0023_0029 - 0.516231038044 xi_0023_0030
 - 0.409255825925 xi_0023_0031 - 0.0994375517393 xi_0023_0032
 - 0.734256048841 xi_0023_0033 - 0.253933375138 xi_0023_0034
 - 0.256674950149 xi_0023_0035 - 0.732341101218 xi_0023_0036
 - 0.86707443001 xi_0023_0037 - 0.319117177314 xi_0023_0038
 + 0.0697086420108 xi_0023_0039 <= 1.24294941651
C_0024_cost_0001: cost_0024 - 0.0124000182326 pi_0001_0000
 - 0.00617282715365 pi_0001_0001 >= 0
C_0024_cost_0002: cost_0024 - 0.00429433717562 pi_0002_0000
 - 0.00412821640354 pi_0002_0001 - 0.00396217211705 pi_0002_0002
 - 0.00379620429503 pi_0002_0003 - 0.00363031291641 pi_0002_0004
 - 0.00346449796007 pi_0002_0005 - 0.00329875940492 pi_0002_0006
 - 0.00313309722983 pi_0002_0007 - 0.00296751141369 pi_0002_0008
 - 0.00280200193537 pi_0002_0009 - 0.00263656877376 pi_0002_0010
 - 0.00247121190771 pi_0002_0011 - 0.00230593131608 pi_0002_0012
 - 0.00214072697774 pi_0002_0013 - 0.00197559887154 pi_0002_0014
 - 0.00181054697632 pi_0002_0015 - 0.00164557127093 pi_0002_0016
 - 0.0014806717342 pi_0002_0017 - 0.00131584834498 pi_0002_0018
 - 0.00115110108208 pi_0002_0019 - 0.000986429924345 pi_0002_0020
 - 0.000821834850589 pi_0002_0021 - 0.00065731583963 pi_0002_0022
 - 0.000492872870283 pi_0002_0023 - 0.000328505921358 pi_0002_0024
 - 0.000164214971663 pi_0002_0025 >= 0
C_0024_cost_0003: cost_0024 >= 0
C_0024_cost_0004: cost_0024 >= 0
C_0024_cost_0005: cost_0024 >= 0
C_0024_cost_0006: cost_0024 >= 0
C_0024_cost_0007: cost_0024 >= 0
C_0024_cost_0008: cost_0024 >= 0
C_0024_cost_0009: cost_0024 >= 0
C_0024_cost_0010: cost_0024 >= 0
C_0024_cost_0011: cost_0024 >= 0
C_0024_cost_0012: cost_0024 >= 0
C_0024_cost_0013: cost_0024 >= 0
C_0024_cost_0014: cost_0024 >= 0
C_0024_cost_0015: cost_0024 >= 0
C_0024_cost_0016: cost_0024 >= 0
C_0024_cost_0017: cost_0024 >= 0
C_0024_cost_0018: cost_0024 >= 0
C_0024_cost_0019: cost_0024 >= 0
C_0024_cost_0020: cost_0024 >= 0
C_0024_cost_0021: cost_0024 >= 0
C_0024_cost_0022: cost_0024 >= 0
C_0024_cost_0023: cost_0024 >= 0
C_0024_cost_0024: cost_0024 >= 0
C_0024_cost_0025: cost_0024 >= 0
C_0024_cost_0026: cost_0024 - 0.0106666652041 pi_0026_0000 >= 0
C_0024_cost_0027: cost_0024 >= 0
C_0024_cost_0028: cost_0024 >= 0
C_0024_cost_0029: cost_0024 - 0.426666385001 pi_0029_0000 >= 0
C_0024_cost_0030: cost_0024 >= 0
C_0024_cost_0031: cost_0024 >= 0
C_0024_cost_0032: cost_0024 >= 0
C_0024_cost_0033: cost_0024 >= 0
C_0024_cost_0034: cost_0024 >= 0
C_0024_cost_0035: cost_0024 >= 0
C_0024_cost_0036: cost_0024 >= 0
C_0024_linear_0000: - act_0000 + xi_0024_0000 = 54
C_0024_linear_0001: - act_0001 + xi_0024_0001 = 48
C_0024_linear_0002: - act_0002 + xi_0024_0002 = 3051
C_0024_linear_0003: - act_0003 + xi_0024_0003 = 3
C_0024_linear_0004: - act_0004 + xi_0024_0004 = 4
C_0024_linear_0005: - act_0005 + xi_0024_0005 = 1
C_0024_linear_0006: - act_0006 + xi_0024_0006 = 0
C_0024_linear_0007: - act_0007 + xi_0024_0007 = 0
C_0024_linear_0008: - act_0008 + xi_0024_0008 = 1
C_0024_linear_0009: - act_0009 + xi_0024_0009 = 0
C_0024_linear_0010: - act_0010 + xi_0024_0010 = 0
C_0024_linear_0011: - act_0011 + xi_0024_0011 = 0
C_0024_linear_0012: - act_0012 + xi_0024_0012 = 0
C_0024_linear_0013: - act_0013 + xi_0024_0013 = 0
C_0024_linear_0014: - act_0014 + xi_0024_0014 = 1
C_0024_linear_0015: - act_0015 + xi_0024_0015 = 0
C_0024_linear_0016: - act_0016 + xi_0024_0016 = 0
C_0024_linear_0017: - act_0017 + xi_0024_0017 = 1
C_0024_linear_0018: - act_0018 + xi_0024_0018 = 0
C_0024_linear_0019: - act_0019 + xi_0024_0019 = 0
C_0024_linear_0020: - act_0020 + xi_0024_0020 = 0
C_0024_linear_0021: - act_0021 + xi_0024_0021 = 0
C_0024_linear_0022: - act_0022 + xi_0024_0022 = 1
C_0024_linear_0023: - act_0023 + xi_0024_0023 = 0
C_0024_linear_0024: - act_0024 + xi_0024_0024 = 0
C_0024_linear_0025: - act_0025 + xi_0024_0025 = 0
C_0024_linear_0026: - act_0026 + xi_0024_0026 = 0
C_0024_linear_0027: - act_0027 + xi_0024_0027 = 0
C_0024_linear_0028: - act_0028 + xi_0024_0028 = 0
C_0024_linear_0029: - act_0029 + xi_0024_0029 = 0
C_0024_linear_0030: - act_0030 + xi_0024_0030 = 1
C_0024_linear_0031: - act_0031 + xi_0024_0031 = 1
C_0024_linear_0032: - act_0032 + xi_0024_0032 = 0
C_0024_linear_0033: - act_0033 + xi_0024_0033 = 0
C_0024_linear_0034: - act_0034 + xi_0024_0034 = 1
C_0024_linear_0035: - act_0035 + xi_0024_0035 = 0
C_0024_linear_0036: - act_0036 + xi_0024_0036 = 0
C_0024_linear_0037: - act_0037 + xi_0024_0037 = 0
C_0024_linear_0038: - act_0038 + xi_0024_0038 = 1
C_0024_linear_0039: - act_0039 + xi_0024_0039 = 1
C_0024_loss_ge: - 10000 omg_0024 - 0.0111828930987 xi_0024_0000
 + 0.0316585861132 xi_0024_0001 + 0.000106039552982 xi_0024_0002
 + 0.2872356913 xi_0024_0003 + 0.013030358965 xi_0024_0004
 + 0.240120705533 xi_0024_0005 + 0.442580447937 xi_0024_0006
 - 0.375980671537 xi_0024_0007 + 0.392374151169 xi_0024_0008
 + 1.06701819784 xi_0024_0009 - 0.942756746323 xi_0024_0010
 + 0.412027349402 xi_0024_0011 + 0.570359951286 xi_0024_0012
 - 0.852905494999 xi_0024_0013 - 0.323418189169 xi_0024_0014
 + 0.252938924417 xi_0024_0015 - 0.0388599557068 xi_0024_0016
 - 0.020417849004 xi_0024_0017 - 0.119001175529 xi_0024_0018
 + 0.47399163059 xi_0024_0019 - 0.445604107063 xi_0024_0020
 - 0.0184582213876 xi_0024_0021 + 0.307589905785 xi_0024_0022
 + 0.444474821864 xi_0024_0023 - 0.187382383206 xi_0024_0024
 + 0.383302875585 xi_0024_0025 - 0.750161596334 xi_0024_0026
 - 1.33170117681 xi_0024_0027 + 0.0190658885385 xi_0024_0028
 - 0.745784276999 xi_0024_0029 - 0.516231038044 xi_0024_0030
 - 0.409255825925 xi_0024_0031 - 0.0994375517393 xi_0024_0032
 - 0.734256048841 xi_0024_0033 - 0.253933375138 xi_0024_0034
 - 0.256674950149 xi_0024_0035 - 0.732341101218 xi_0024_0036
 - 0.86707443001 xi_0024_0037 - 0.319117177314 xi_0024_0038
 + 0.0697086420108 xi_0024_0039 >= -9998.75705057
C_0024_loss_le: - 10000 omg_0024 - 0.0111828930987 xi_0024_0000
 + 0.0316585861132 xi_0024_0001 + 0.000106039552982 xi_0024_0002
 + 0.2872356913 xi_0024_0003 + 0.013030358965 xi_0024_0004
 + 0.240120705533 xi_0024_0005 + 0.442580447937 xi_0024_0006
 - 0.375980671537 xi_0024_0007 + 0.392374151169 xi_0024_0008
 + 1.06701819784 xi_0024_0009 - 0.942756746323 xi_0024_0010
 + 0.412027349402 xi_0024_0011 + 0.570359951286 xi_0024_0012
 - 0.852905494999 xi_0024_0013 - 0.323418189169 xi_0024_0014
 + 0.252938924417 xi_0024_0015 - 0.0388599557068 xi_0024_0016
 - 0.020417849004 xi_0024_0017 - 0.119001175529 xi_0024_0018
 + 0.47399163059 xi_0024_0019 - 0.445604107063 xi_0024_0020
 - 0.0184582213876 xi_0024_0021 + 0.307589905785 xi_0024_0022
 + 0.444474821864 xi_0024_0023 - 0.187382383206 xi_0024_0024
 + 0.383302875585 xi_0024_0025 - 0.750161596334 xi_0024_0026
 - 1.33170117681 xi_0024_0027 + 0.0190658885385 xi_0024_0028
 - 0.745784276999 xi_0024_0029 - 0.516231038044 xi_0024_0030
 - 0.409255825925 xi_0024_0031 - 0.0994375517393 xi_0024_0032
 - 0.734256048841 xi_0024_0033 - 0.253933375138 xi_0024_0034
 - 0.256674950149 xi_0024_0035 - 0.732341101218 xi_0024_0036
 - 0.86707443001 xi_0024_0037 - 0.319117177314 xi_0024_0038
 + 0.0697086420108 xi_0024_0039 <= 1.24294941651
C_0025_cost_0001: cost_0025 - 0.0275526923386 pi_0001_0000
 - 0.0126479830791 pi_0001_0001 >= 0
C_0025_cost_0002: cost_0025 - 0.00356272838076 pi_0002_0000
 - 0.00342484678419 pi_0002_0001 - 0.00328703362868 pi_0002_0002
 - 0.00314928889486 pi_0002_0003 - 0.00301161256341 pi_0002_0004
 - 0.00287400461496 pi_0002_0005 - 0.0027364650302 pi_0002_0006
 - 0.0025989937898 pi_0002_0007 - 0.00246159087444 pi_0002_0008
 - 0.00232425626481 pi_0002_0009 - 0.0021869899416 pi_0002_0010
 - 0.00204979188552 pi_0002_0011 - 0.00191266207728 pi_0002_0012
 - 0.00177560049759 pi_0002_0013 - 0.00163860712719 pi_0002_0014
 - 0.0015016819468 pi_0002_0015 - 0.00136482493717 pi_0002_0016
 - 0.00122803607904 pi_0002_0017 - 0.00109131535316 pi_0002_0018
 - 0.000954662740295 pi_0002_0019 - 0.000818078221211 pi_0002_0020
 - 0.000681561776685 pi_0002_0021 - 0.000545113387496 pi_0002_0022
 - 0.000408733034434 pi_0002_0023 - 0.000272420698295 pi_0002_0024
 - 0.00013617635988 pi_0002_0025 >= 0
C_0025_cost_0003: cost_0025 >= 0
C_0025_cost_0004: cost_0025 >= 0
C_0025_cost_0005: cost_0025 >= 0
C_0025_cost_0006: cost_0025 >= 0
C_0025_cost_0007: cost_0025 >= 0
C_0025_cost_0008: cost_0025 >= 0
C_0025_cost_0009: cost_0025 >= 0
C_0025_cost_0010: cost_0025 >= 0
C_0025_cost_0011: cost_0025 >= 0
C_0025_cost_0012: cost_0025 >= 0
C_0025_cost_0013: cost_0025 >= 0
C_0025_cost_0014: cost_0025 >= 0
C_0025_cost_0015: cost_0025 >= 0
C_0025_cost_0016: cost_0025 >= 0
C_0025_cost_0017: cost_0025 >= 0
C_0025_cost_0018: cost_0025 >= 0
C_0025_cost_0019: cost_0025 >= 0
C_0025_cost_0020: cost_0025 >= 0
C_0025_cost_0021: cost_0025 >= 0
C_0025_cost_0022: cost_0025 >= 0
C_0025_cost_0023: cost_0025 >= 0
C_0025_cost_0024: cost_0025 >= 0
C_0025_cost_0025: cost_0025 >= 0
C_0025_cost_0026: cost_0025 - 0.0106666652041 pi_0026_0000 >= 0
C_0025_cost_0027: cost_0025 >= 0
C_0025_cost_0028: cost_0025 >= 0
C_0025_cost_0029: cost_0025 - 0.426666385001 pi_0029_0000 >= 0
C_0025_cost_0030: cost_0025 >= 0
C_0025_cost_0031: cost_0025 >= 0
C_0025_cost_0032: cost_0025 >= 0
C_0025_cost_0033: cost_0025 >= 0
C_0025_cost_0034: cost_0025 >= 0
C_0025_cost_0035: cost_0025 >= 0
C_0025_cost_0036: cost_0025 >= 0
C_0025_linear_0000: - act_0000 + xi_0025_0000 = 21
C_0025_linear_0001: - act_0001 + xi_0025_0001 = 30
C_0025_linear_0002: - act_0002 + xi_0025_0002 = 3441
C_0025_linear_0003: - act_0003 + xi_0025_0003 = 2
C_0025_linear_0004: - act_0004 + xi_0025_0004 = 4
C_0025_linear_0005: - act_0005 + xi_0025_0005 = 1
C_0025_linear_0006: - act_0006 + xi_0025_0006 = 0
C_0025_linear_0007: - act_0007 + xi_0025_0007 = 0
C_0025_linear_0008: - act_0008 + xi_0025_0008 = 1
C_0025_linear_0009: - act_0009 + xi_0025_0009 = 0
C_0025_linear_0010: - act_0010 + xi_0025_0010 = 0
C_0025_linear_0011: - act_0011 + xi_0025_0011 = 0
C_0025_linear_0012: - act_0012 + xi_0025_0012 = 1
C_0025_linear_0013: - act_0013 + xi_0025_0013 = 0
C_0025_linear_0014: - act_0014 + xi_0025_0014 = 0
C_0025_linear_0015: - act_0015 + xi_0025_0015 = 1
C_0025_linear_0016: - act_0016 + xi_0025_0016 = 0
C_0025_linear_0017: - act_0017 + xi_0025_0017 = 1
C_0025_linear_0018: - act_0018 + xi_0025_0018 = 0
C_0025_linear_0019: - act_0019 + xi_0025_0019 = 0
C_0025_linear_0020: - act_0020 + xi_0025_0020 = 0
C_0025_linear_0021: - act_0021 + xi_0025_0021 = 1
C_0025_linear_0022: - act_0022 + xi_0025_0022 = 0
C_0025_linear_0023: - act_0023 + xi_0025_0023 = 0
C_0025_linear_0024: - act_0024 + xi_0025_0024 = 0
C_0025_linear_0025: - act_0025 + xi_0025_0025 = 0
C_0025_linear_0026: - act_0026 + xi_0025_0026 = 0
C_0025_linear_0027: - act_0027 + xi_0025_0027 = 0
C_0025_linear_0028: - act_0028 + xi_0025_0028 = 0
C_0025_linear_0029: - act_0029 + xi_0025_0029 = 0
C_0025_linear_0030: - act_0030 + xi_0025_0030 = 1
C_0025_linear_0031: - act_0031 + xi_0025_0031 = 0
C_0025_linear_0032: - act_0032 + xi_0025_0032 = 1
C_0025_linear_0033: - act_0033 + xi_0025_0033 = 0
C_0025_linear_0034: - act_0034 + xi_0025_0034 = 0
C_0025_linear_0035: - act_0035 + xi_0025_0035 = 1
C_0025_linear_0036: - act_0036 + xi_0025_0036 = 0
C_0025_linear_0037: - act_0037 + xi_0025_0037 = 0
C_0025_linear_0038: - act_0038 + xi_0025_0038 = 0
C_0025_linear_0039: - act_0039 + xi_0025_0039 = 0
C_0025_loss_ge: - 10000 omg_0025 - 0.0111828930987 xi_0025_0000
 + 0.0316585861132 xi_0025_0001 + 0.000106039552982 xi_0025_0002
 + 0.2872356913 xi_0025_0003 + 0.013030358965 xi_0025_0004
 + 0.240120705533 xi_0025_0005 + 0.442580447937 xi_0025_0006
 - 0.375980671537 xi_0025_0007 + 0.392374151169 xi_0025_0008
 + 1.06701819784 xi_0025_0009 - 0.942756746323 xi_0025_0010
 + 0.412027349402 xi_0025_0011 + 0.570359951286 xi_0025_0012
 - 0.852905494999 xi_0025_0013 - 0.323418189169 xi_0025_0014
 + 0.252938924417 xi_0025_0015 - 0.0388599557068 xi_0025_0016
 - 0.020417849004 xi_0025_0017 - 0.119001175529 xi_0025_0018
 + 0.47399163059 xi_0025_0019 - 0.445604107063 xi_0025_0020
 - 0.0184582213876 xi_0025_0021 + 0.307589905785 xi_0025_0022
 + 0.444474821864 xi_0025_0023 - 0.187382383206 xi_0025_0024
 + 0.383302875585 xi_0025_0025 - 0.750161596334 xi_0025_0026
 - 1.33170117681 xi_0025_0027 + 0.0190658885385 xi_0025_0028
 - 0.745784276999 xi_0025_0029 - 0.516231038044 xi_0025_0030
 - 0.409255825925 xi_0025_0031 - 0.0994375517393 xi_0025_0032
 - 0.734256048841 xi_0025_0033 - 0.253933375138 xi_0025_0034
 - 0.256674950149 xi_0025_0035 - 0.732341101218 xi_0025_0036
 - 0.86707443001 xi_0025_0037 - 0.319117177314 xi_0025_0038
 + 0.0697086420108 xi_0025_0039 >= -9998.75705057
C_0025_loss_le: - 10000 omg_0025 - 0.0111828930987 xi_0025_0000
 + 0.0316585861132 xi_0025_0001 + 0.000106039552982 xi_0025_0002
 + 0.2872356913 xi_0025_0003 + 0.013030358965 xi_0025_0004
 + 0.240120705533 xi_0025_0005 + 0.442580447937 xi_0025_0006
 - 0.375980671537 xi_0025_0007 + 0.392374151169 xi_0025_0008
 + 1.06701819784 xi_0025_0009 - 0.942756746323 xi_0025_0010
 + 0.412027349402 xi_0025_0011 + 0.570359951286 xi_0025_0012
 - 0.852905494999 xi_0025_0013 - 0.323418189169 xi_0025_0014
 + 0.252938924417 xi_0025_0015 - 0.0388599557068 xi_0025_0016
 - 0.020417849004 xi_0025_0017 - 0.119001175529 xi_0025_0018
 + 0.47399163059 xi_0025_0019 - 0.445604107063 xi_0025_0020
 - 0.0184582213876 xi_0025_0021 + 0.307589905785 xi_0025_0022
 + 0.444474821864 xi_0025_0023 - 0.187382383206 xi_0025_0024
 + 0.383302875585 xi_0025_0025 - 0.750161596334 xi_0025_0026
 - 1.33170117681 xi_0025_0027 + 0.0190658885385 xi_0025_0028
 - 0.745784276999 xi_0025_0029 - 0.516231038044 xi_0025_0030
 - 0.409255825925 xi_0025_0031 - 0.0994375517393 xi_0025_0032
 - 0.734256048841 xi_0025_0033 - 0.253933375138 xi_0025_0034
 - 0.256674950149 xi_0025_0035 - 0.732341101218 xi_0025_0036
 - 0.86707443001 xi_0025_0037 - 0.319117177314 xi_0025_0038
 + 0.0697086420108 xi_0025_0039 <= 1.24294941651
C_0026_cost_0001: cost_0026 - 0.0639671434312 pi_0001_0000
 - 0.0315831062354 pi_0001_0001 >= 0
C_0026_cost_0002: cost_0026 - 0.00410274863727 pi_0002_0000
 - 0.0039440226714 pi_0002_0001 - 0.00378537111069 pi_0002_0002
 - 0.00362679393387 pi_0002_0003 - 0.00346829111973 pi_0002_0004
 - 0.00330986264701 pi_0002_0005 - 0.00315150849448 pi_0002_0006
 - 0.0029932286409 pi_0002_0007 - 0.00283502306505 pi_0002_0008
 - 0.00267689174568 pi_0002_0009 - 0.00251883466158 pi_0002_0010
 - 0.00236085179152 pi_0002_0011 - 0.00220294311428 pi_0002_0012
 - 0.00204510860863 pi_0002_0013 - 0.00188734825335 pi_0002_0014
 - 0.00172966202724 pi_0002_0015 - 0.00157204990908 pi_0002_0016
 - 0.00141451187766 pi_0002_0017 - 0.00125704791177 pi_0002_0018
 - 0.00109965799021 pi_0002_0019 - 0.00094234209178 pi_0002_0020
 - 0.000785100195278 pi_0002_0021 - 0.000627932279511 pi_0002_0022
 - 0.000470838323287 pi_0002_0023 - 0.000313818305417 pi_0002_0024
 - 0.000156872204715 pi_0002_0025 >= 0
C_0026_cost_0003: cost_0026 >= 0
C_0026_cost_0004: cost_0026 >= 0
C_0026_cost_0005: cost_0026 >= 0
C_0026_cost_0006: cost_0026 >= 0
C_0026_cost_0007: cost_0026 >= 0
C_0026_cost_0008: cost_0026 >= 0
C_0026_cost_0009: cost_0026 >= 0
C_0026_cost_0010: cost_0026 >= 0
C_0026_cost_0011: cost_0026 >= 0
C_0026_cost_0012: cost_0026 >= 0
C_0026_cost_0013: cost_0026 >= 0
C_0026_cost_0014: cost_0026 >= 0
C_0026_cost_0015: cost_0026 >= 0
C_0026_cost_0016: cost_0026 >= 0
C_0026_cost_0017: cost_0026 >= 0
C_0026_cost_0018: cost_0026 >= 0
C_0026_cost_0019: cost_0026 >= 0
C_0026_cost_0020: cost_0026 >= 0
C_0026_cost_0021: cost_0026 >= 0
C_0026_cost_0022: cost_0026 >= 0
C_0026_cost_0023: cost_0026 >= 0
C_0026_cost_0024: cost_0026 >= 0
C_0026_cost_0025: cost_0026 >= 0
C_0026_cost_0026: cost_0026 - 0.0106666652041 pi_0026_0000 >= 0
C_0026_cost_0027: cost_0026 >= 0
C_0026_cost_0028: cost_0026 >= 0
C_0026_cost_0029: cost_0026 - 0.426666385001 pi_0029_0000 >= 0
C_0026_cost_0030: cost_0026 >= 0
C_0026_cost_0031: cost_0026 >= 0
C_0026_cost_0032: cost_0026 >= 0
C_0026_cost_0033: cost_0026 >= 0
C_0026_cost_0034: cost_0026 >= 0
C_0026_cost_0035: cost_0026 >= 0
C_0026_cost_0036: cost_0026 >= 0
C_0026_linear_0000: - act_0000 + xi_0026_0000 = 22
C_0026_linear_0001: - act_0001 + xi_0026_0001 = 24
C_0026_linear_0002: - act_0002 + xi_0026_0002 = 3149
C_0026_linear_0003: - act_0003 + xi_0026_0003 = 4
C_0026_linear_0004: - act_0004 + xi_0026_0004 = 1
C_0026_linear_0005: - act_0005 + xi_0026_0005 = 1
C_0026_linear_0006: - act_0006 + xi_0026_0006 = 0
C_0026_linear_0007: - act_0007 + xi_0026_0007 = 0
C_0026_linear_0008: - act_0008 + xi_0026_0008 = 1
C_0026_linear_0009: - act_0009 + xi_0026_0009 = 0
C_0026_linear_0010: - act_0010 + xi_0026_0010 = 0
C_0026_linear_0011: - act_0011 + xi_0026_0011 = 1
C_0026_linear_0012: - act_0012 + xi_0026_0012 = 0
C_0026_linear_0013: - act_0013 + xi_0026_0013 = 0
C_0026_linear_0014: - act_0014 + xi_0026_0014 = 0
C_0026_linear_0015: - act_0015 + xi_0026_0015 = 0
C_0026_linear_0016: - act_0016 + xi_0026_0016 = 0
C_0026_linear_0017: - act_0017 + xi_0026_0017 = 1
C_0026_linear_0018: - act_0018 + xi_0026_0018 = 0
C_0026_linear_0019: - act_0019 + xi_0026_0019 = 0
C_0026_linear_0020: - act_0020 + xi_0026_0020 = 0
C_0026_linear_0021: - act_0021 + xi_0026_0021 = 1
C_0026_linear_0022: - act_0022 + xi_0026_0022 = 0
C_0026_linear_0023: - act_0023 + xi_0026_0023 = 0
C_0026_linear_0024: - act_0024 + xi_0026_0024 = 0
C_0026_linear_0025: - act_0025 + xi_0026_0025 = 0
C_0026_linear_0026: - act_0026 + xi_0026_0026 = 0
C_0026_linear_0027: - act_0027 + xi_0026_0027 = 0
C_0026_linear_0028: - act_0028 + xi_0026_0028 = 1
C_0026_linear_0029: - act_0029 + xi_0026_0029 = 0
C_0026_linear_0030: - act_0030 + xi_0026_0030 = 0
C_0026_linear_0031: - act_0031 + xi_0026_0031 = 1
C_0026_linear_0032: - act_0032 + xi_0026_0032 = 0
C_0026_linear_0033: - act_0033 + xi_0026_0033 = 0
C_0026_linear_0034: - act_0034 + xi_0026_0034 = 1
C_0026_linear_0035: - act_0035 + xi_0026_0035 = 0
C_0026_linear_0036: - act_0036 + xi_0026_0036 = 0
C_0026_linear_0037: - act_0037 + xi_0026_0037 = 0
C_0026_linear_0038: - act_0038 + xi_0026_0038 = 1
C_0026_linear_0039: - act_0039 + xi_0026_0039 = 1
C_0026_loss_ge: - 10000 omg_0026 - 0.0111828930987 xi_0026_0000
 + 0.0316585861132 xi_0026_0001 + 0.000106039552982 xi_0026_0002
 + 0.2872356913 xi_0026_0003 + 0.013030358965 xi_0026_0004
 + 0.240120705533 xi_0026_0005 + 0.442580447937 xi_0026_0006
 - 0.375980671537 xi_0026_0007 + 0.392374151169 xi_0026_0008
 + 1.06701819784 xi_0026_0009 - 0.942756746323 xi_0026_0010
 + 0.412027349402 xi_0026_0011 + 0.570359951286 xi_0026_0012
 - 0.852905494999 xi_0026_0013 - 0.323418189169 xi_0026_0014
 + 0.252938924417 xi_0026_0015 - 0.0388599557068 xi_0026_0016
 - 0.020417849004 xi_0026_0017 - 0.119001175529 xi_0026_0018
 + 0.47399163059 xi_0026_0019 - 0.445604107063 xi_0026_0020
 - 0.0184582213876 xi_0026_0021 + 0.307589905785 xi_0026_0022
 + 0.444474821864 xi_0026_0023 - 0.187382383206 xi_0026_0024
 + 0.383302875585 xi_0026_0025 - 0.750161596334 xi_0026_0026
 - 1.33170117681 xi_0026_0027 + 0.0190658885385 xi_0026_0028
 - 0.745784276999 xi_0026_0029 - 0.516231038044 xi_0026_0030
 - 0.409255825925 xi_0026_0031 - 0.0994375517393 xi_0026_0032
 - 0.734256048841 xi_0026_0033 - 0.253933375138 xi_0026_0034
 - 0.256674950149 xi_0026_0035 - 0.732341101218 xi_0026_0036
 - 0.86707443001 xi_0026_0037 - 0.319117177314 xi_0026_0038
 + 0.0697086420108 xi_0026_0039 >= -9998.75705057
C_0026_loss_le: - 10000 omg_0026 - 0.0111828930987 xi_0026_0000
 + 0.0316585861132 xi_0026_0001 + 0.000106039552982 xi_0026_0002
 + 0.2872356913 xi_0026_0003 + 0.013030358965 xi_0026_0004
 + 0.240120705533 xi_0026_0005 + 0.442580447937 xi_0026_0006
 - 0.375980671537 xi_0026_0007 + 0.392374151169 xi_0026_0008
 + 1.06701819784 xi_0026_0009 - 0.942756746323 xi_0026_0010
 + 0.412027349402 xi_0026_0011 + 0.570359951286 xi_0026_0012
 - 0.852905494999 xi_0026_0013 - 0.323418189169 xi_0026_0014
 + 0.252938924417 xi_0026_0015 - 0.0388599557068 xi_0026_0016
 - 0.020417849004 xi_0026_0017 - 0.119001175529 xi_0026_0018
 + 0.47399163059 xi_0026_0019 - 0.445604107063 xi_0026_0020
 - 0.0184582213876 xi_0026_0021 + 0.307589905785 xi_0026_0022
 + 0.444474821864 xi_0026_0023 - 0.187382383206 xi_0026_0024
 + 0.383302875585 xi_0026_0025 - 0.750161596334 xi_0026_0026
 - 1.33170117681 xi_0026_0027 + 0.0190658885385 xi_0026_0028
 - 0.745784276999 xi_0026_0029 - 0.516231038044 xi_0026_0030
 - 0.409255825925 xi_0026_0031 - 0.0994375517393 xi_0026_0032
 - 0.734256048841 xi_0026_0033 - 0.253933375138 xi_0026_0034
 - 0.256674950149 xi_0026_0035 - 0.732341101218 xi_0026_0036
 - 0.86707443001 xi_0026_0037 - 0.319117177314 xi_0026_0038
 + 0.0697086420108 xi_0026_0039 <= 1.24294941651
C_0027_cost_0001: cost_0027 - 0.0672952094184 pi_0001_0000
 - 0.0360319142459 pi_0001_0001 >= 0
C_0027_cost_0002: cost_0027 - 0.00296649293071 pi_0002_0000
 - 0.00285431823723 pi_0002_0001 - 0.00274199040616 pi_0002_0002
 - 0.00262950936634 pi_0002_0003 - 0.00251687504686 pi_0002_0004
 - 0.00240408737706 pi_0002_0005 - 0.00229114628654 pi_0002_0006
 - 0.00217805170517 pi_0002_0007 - 0.00206480356305 pi_0002_0008
 - 0.00195140179056 pi_0002_0009 - 0.00183784631834 pi_0002_0010
 - 0.00172413707726 pi_0002_0011 - 0.00161027399848 pi_0002_0012
 - 0.00149625701341 pi_0002_0013 - 0.00138208605371 pi_0002_0014
 - 0.0012677610513 pi_0002_0015 - 0.00115328193839 pi_0002_0016
 - 0.00103864864741 pi_0002_0017 - 0.000923861111083 pi_0002_0018
 - 0.000808919262378 pi_0002_0019 - 0.000693823034532 pi_0002_0020
 - 0.000578572361045 pi_0002_0021 - 0.000463167175682 pi_0002_0022
 - 0.000347607412471 pi_0002_0023 - 0.000231893005704 pi_0002_0024
 - 0.000116023889939 pi_0002_0025 >= 0
C_0027_cost_0003: cost_0027 >= 0
C_0027_cost_0004: cost_0027 >= 0
C_0027_cost_0005: cost_0027 >= 0
C_0027_cost_0006: cost_0027 >= 0
C_0027_cost_0007: cost_0027 >= 0
C_0027_cost_0008: cost_0027 >= 0
C_0027_cost_0009: cost_0027 >= 0
C_0027_cost_0010: cost_0027 >= 0
C_0027_cost_0011: cost_0027 >= 0
C_0027_cost_0012: cost_0027 >= 0
C_0027_cost_0013: cost_0027 >= 0
C_0027_cost_0014: cost_0027 >= 0
C_0027_cost_0015: cost_0027 >= 0
C_0027_cost_0016: cost_0027 >= 0
C_0027_cost_0017: cost_0027 >= 0
C_0027_cost_0018: cost_0027 >= 0
C_0027_cost_0019: cost_0027 >= 0
C_0027_cost_0020: cost_0027 >= 0
C_0027_cost_0021: cost_0027 >= 0
C_0027_cost_0022: cost_0027 >= 0
C_0027_cost_0023: cost_0027 >= 0
C_0027_cost_0024: cost_0027 >= 0
C_0027_cost_0025: cost_0027 >= 0
C_0027_cost_0026: cost_0027 - 0.0106666652041 pi_0026_0000 >= 0
C_0027_cost_0027: cost_0027 >= 0
C_0027_cost_0028: cost_0027 >= 0
C_0027_cost_0029: cost_0027 - 0.426666385001 pi_0029_0000 >= 0
C_0027_cost_0030: cost_0027 >= 0
C_0027_cost_0031: cost_0027 >= 0
C_0027_cost_0032: cost_0027 >= 0
C_0027_cost_0033: cost_0027 >= 0
C_0027_cost_0034: cost_0027 >= 0
C_0027_cost_0035: cost_0027 >= 0
C_0027_cost_0036: cost_0027 >= 0
C_0027_linear_0000: - act_0000 + xi_0027_0000 = 22
C_0027_linear_0001: - act_0001 + xi_0027_0001 = 9
C_0027_linear_0002: - act_0002 + xi_0027_0002 = 276
C_0027_linear_0003: - act_0003 + xi_0027_0003 = 4
C_0027_linear_0004: - act_0004 + xi_0027_0004 = 4
C_0027_linear_0005: - act_0005 + xi_0027_0005 = 1
C_0027_linear_0006: - act_0006 + xi_0027_0006 = 0
C_0027_linear_0007: - act_0007 + xi_0027_0007 = 0
C_0027_linear_0008: - act_0008 + xi_0027_0008 = 1
C_0027_linear_0009: - act_0009 + xi_0027_0009 = 0
C_0027_linear_0010: - act_0010 + xi_0027_0010 = 0
C_0027_linear_0011: - act_0011 + xi_0027_0011 = 0
C_0027_linear_0012: - act_0012 + xi_0027_0012 = 0
C_0027_linear_0013: - act_0013 + xi_0027_0013 = 0
C_0027_linear_0014: - act_0014 + xi_0027_0014 = 0
C_0027_linear_0015: - act_0015 + xi_0027_0015 = 1
C_0027_linear_0016: - act_0016 + xi_0027_0016 = 0
C_0027_linear_0017: - act_0017 + xi_0027_0017 = 0
C_0027_linear_0018: - act_0018 + xi_0027_0018 = 0
C_0027_linear_0019: - act_0019 + xi_0027_0019 = 0
C_0027_linear_0020: - act_0020 + xi_0027_0020 = 0
C_0027_linear_0021: - act_0021 + xi_0027_0021 = 0
C_0027_linear_0022: - act_0022 + xi_0027_0022 = 0
C_0027_linear_0023: - act_0023 + xi_0027_0023 = 1
C_0027_linear_0024: - act_0024 + xi_0027_0024 = 0
C_0027_linear_0025: - act_0025 + xi_0027_0025 = 0
C_0027_linear_0026: - act_0026 + xi_0027_0026 = 0
C_0027_linear_0027: - act_0027 + xi_0027_0027 = 0
C_0027_linear_0028: - act_0028 + xi_0027_0028 = 0
C_0027_linear_0029: - act_0029 + xi_0027_0029 = 0
C_0027_linear_0030: - act_0030 + xi_0027_0030 = 1
C_0027_linear_0031: - act_0031 + xi_0027_0031 = 0
C_0027_linear_0032: - act_0032 + xi_0027_0032 = 1
C_0027_linear_0033: - act_0033 + xi_0027_0033 = 0
C_0027_linear_0034: - act_0034 + xi_0027_0034 = 1
C_0027_linear_0035: - act_0035 + xi_0027_0035 = 0
C_0027_linear_0036: - act_0036 + xi_0027_0036 = 0
C_0027_linear_0037: - act_0037 + xi_0027_0037 = 0
C_0027_linear_0038: - act_0038 + xi_0027_0038 = 0
C_0027_linear_0039: - act_0039 + xi_0027_0039 = 1
C_0027_loss_ge: - 10000 omg_0027 - 0.0111828930987 xi_0027_0000
 + 0.0316585861132 xi_0027_0001 + 0.000106039552982 xi_0027_0002
 + 0.2872356913 xi_0027_0003 + 0.013030358965 xi_0027_0004
 + 0.240120705533 xi_0027_0005 + 0.442580447937 xi_0027_0006
 - 0.375980671537 xi_0027_0007 + 0.392374151169 xi_0027_0008
 + 1.06701819784 xi_0027_0009 - 0.942756746323 xi_0027_0010
 + 0.412027349402 xi_0027_0011 + 0.570359951286 xi_0027_0012
 - 0.852905494999 xi_0027_0013 - 0.323418189169 xi_0027_0014
 + 0.252938924417 xi_0027_0015 - 0.0388599557068 xi_0027_0016
 - 0.020417849004 xi_0027_0017 - 0.119001175529 xi_0027_0018
 + 0.47399163059 xi_0027_0019 - 0.445604107063 xi_0027_0020
 - 0.0184582213876 xi_0027_0021 + 0.307589905785 xi_0027_0022
 + 0.444474821864 xi_0027_0023 - 0.187382383206 xi_0027_0024
 + 0.383302875585 xi_0027_0025 - 0.750161596334 xi_0027_0026
 - 1.33170117681 xi_0027_0027 + 0.0190658885385 xi_0027_0028
 - 0.745784276999 xi_0027_0029 - 0.516231038044 xi_0027_0030
 - 0.409255825925 xi_0027_0031 - 0.0994375517393 xi_0027_0032
 - 0.734256048841 xi_0027_0033 - 0.253933375138 xi_0027_0034
 - 0.256674950149 xi_0027_0035 - 0.732341101218 xi_0027_0036
 - 0.86707443001 xi_0027_0037 - 0.319117177314 xi_0027_0038
 + 0.0697086420108 xi_0027_0039 >= -9998.75705057
C_0027_loss_le: - 10000 omg_0027 - 0.0111828930987 xi_0027_0000
 + 0.0316585861132 xi_0027_0001 + 0.000106039552982 xi_0027_0002
 + 0.2872356913 xi_0027_0003 + 0.013030358965 xi_0027_0004
 + 0.240120705533 xi_0027_0005 + 0.442580447937 xi_0027_0006
 - 0.375980671537 xi_0027_0007 + 0.392374151169 xi_0027_0008
 + 1.06701819784 xi_0027_0009 - 0.942756746323 xi_0027_0010
 + 0.412027349402 xi_0027_0011 + 0.570359951286 xi_0027_0012
 - 0.852905494999 xi_0027_0013 - 0.323418189169 xi_0027_0014
 + 0.252938924417 xi_0027_0015 - 0.0388599557068 xi_0027_0016
 - 0.020417849004 xi_0027_0017 - 0.119001175529 xi_0027_0018
 + 0.47399163059 xi_0027_0019 - 0.445604107063 xi_0027_0020
 - 0.0184582213876 xi_0027_0021 + 0.307589905785 xi_0027_0022
 + 0.444474821864 xi_0027_0023 - 0.187382383206 xi_0027_0024
 + 0.383302875585 xi_0027_0025 - 0.750161596334 xi_0027_0026
 - 1.33170117681 xi_0027_0027 + 0.0190658885385 xi_0027_0028
 - 0.745784276999 xi_0027_0029 - 0.516231038044 xi_0027_0030
 - 0.409255825925 xi_0027_0031 - 0.0994375517393 xi_0027_0032
 - 0.734256048841 xi_0027_0033 - 0.253933375138 xi_0027_0034
 - 0.256674950149 xi_0027_0035 - 0.732341101218 xi_0027_0036
 - 0.86707443001 xi_0027_0037 - 0.319117177314 xi_0027_0038
 + 0.0697086420108 xi_0027_0039 <= 1.24294941651
C_0028_cost_0001: cost_0028 - 0.0639671434312 pi_0001_0000
 - 0.0315831062354 pi_0001_0001 >= 0
C_0028_cost_0002: cost_0028 - 0.00661605921405 pi_0002_0000
 - 0.00636218601329 pi_0002_0001 - 0.00610826389823 pi_0002_0002
 - 0.0058542930771 pi_0002_0003 - 0.00560027375807 pi_0002_0004
 - 0.00534620614932 pi_0002_0005 - 0.00509209045904 pi_0002_0006
 - 0.00483792689537 pi_0002_0007 - 0.00458371566649 pi_0002_0008
 - 0.00432945698051 pi_0002_0009 - 0.00407515104557 pi_0002_0010
 - 0.00382079806979 pi_0002_0011 - 0.00356639826126 pi_0002_0012
 - 0.00331195182807 pi_0002_0013 - 0.00305745897829 pi_0002_0014
 - 0.00280291991997 pi_0002_0015 - 0.00254833486114 pi_0002_0016
 - 0.00229370400983 pi_0002_0017 - 0.00203902757405 pi_0002_0018
 - 0.00178430576176 pi_0002_0019 - 0.00152953878094 pi_0002_0020
 - 0.00127472683952 pi_0002_0021 - 0.00101987014543 pi_0002_0022
 - 0.000764968906567 pi_0002_0023 - 0.000510023330809 pi_0002_0024
 - 0.00025503362601 pi_0002_0025 >= 0
C_0028_cost_0003: cost_0028 >= 0
C_0028_cost_0004: cost_0028 >= 0
C_0028_cost_0005: cost_0028 >= 0
C_0028_cost_0006: cost_0028 >= 0
C_0028_cost_0007: cost_0028 >= 0
C_0028_cost_0008: cost_0028 >= 0
C_0028_cost_0009: cost_0028 >= 0
C_0028_cost_0010: cost_0028 >= 0
C_0028_cost_0011: cost_0028 >= 0
C_0028_cost_0012: cost_0028 >= 0
C_0028_cost_0013: cost_0028 >= 0
C_0028_cost_0014: cost_0028 >= 0
C_0028_cost_0015: cost_0028 >= 0
C_0028_cost_0016: cost_0028 >= 0
C_0028_cost_0017: cost_0028 >= 0
C_0028_cost_0018: cost_0028 >= 0
C_0028_cost_0019: cost_0028 >= 0
C_0028_cost_0020: cost_0028 >= 0
C_0028_cost_0021: cost_0028 >= 0
C_0028_cost_0022: cost_0028 >= 0
C_0028_cost_0023: cost_0028 >= 0
C_0028_cost_0024: cost_0028 >= 0
C_0028_cost_0025: cost_0028 >= 0
C_0028_cost_0026: cost_0028 - 0.0106666652041 pi_0026_0000 >= 0
C_0028_cost_0027: cost_0028 >= 0
C_0028_cost_0028: cost_0028 >= 0
C_0028_cost_0029: cost_0028 - 0.426666385001 pi_0029_0000 >= 0
C_0028_cost_0030: cost_0028 >= 0
C_0028_cost_0031: cost_0028 >= 0
C_0028_cost_0032: cost_0028 >= 0
C_0028_cost_0033: cost_0028 >= 0
C_0028_cost_0034: cost_0028 >= 0
C_0028_cost_0035: cost_0028 >= 0
C_0028_cost_0036: cost_0028 >= 0
C_0028_linear_0000: - act_0000 + xi_0028_0000 = 25
C_0028_linear_0001: - act_0001 + xi_0028_0001 = 24
C_0028_linear_0002: - act_0002 + xi_0028_0002 = 1371
C_0028_linear_0003: - act_0003 + xi_0028_0003 = 4
C_0028_linear_0004: - act_0004 + xi_0028_0004 = 4
C_0028_linear_0005: - act_0005 + xi_0028_0005 = 1
C_0028_linear_0006: - act_0006 + xi_0028_0006 = 0
C_0028_linear_0007: - act_0007 + xi_0028_0007 = 0
C_0028_linear_0008: - act_0008 + xi_0028_0008 = 1
C_0028_linear_0009: - act_0009 + xi_0028_0009 = 0
C_0028_linear_0010: - act_0010 + xi_0028_0010 = 0
C_0028_linear_0011: - act_0011 + xi_0028_0011 = 0
C_0028_linear_0012: - act_0012 + xi_0028_0012 = 0
C_0028_linear_0013: - act_0013 + xi_0028_0013 = 0
C_0028_linear_0014: - act_0014 + xi_0028_0014 = 0
C_0028_linear_0015: - act_0015 + xi_0028_0015 = 1
C_0028_linear_0016: - act_0016 + xi_0028_0016 = 0
C_0028_linear_0017: - act_0017 + xi_0028_0017 = 1
C_0028_linear_0018: - act_0018 + xi_0028_0018 = 0
C_0028_linear_0019: - act_0019 + xi_0028_0019 = 0
C_0028_linear_0020: - act_0020 + xi_0028_0020 = 0
C_0028_linear_0021: - act_0021 + xi_0028_0021 = 0
C_0028_linear_0022: - act_0022 + xi_0028_0022 = 0
C_0028_linear_0023: - act_0023 + xi_0028_0023 = 1
C_0028_linear_0024: - act_0024 + xi_0028_0024 = 0
C_0028_linear_0025: - act_0025 + xi_0028_0025 = 0
C_0028_linear_0026: - act_0026 + xi_0028_0026 = 0
C_0028_linear_0027: - act_0027 + xi_0028_0027 = 0
C_0028_linear_0028: - act_0028 + xi_0028_0028 = 0
C_0028_linear_0029: - act_0029 + xi_0028_0029 = 0
C_0028_linear_0030: - act_0030 + xi_0028_0030 = 1
C_0028_linear_0031: - act_0031 + xi_0028_0031 = 1
C_0028_linear_0032: - act_0032 + xi_0028_0032 = 0
C_0028_linear_0033: - act_0033 + xi_0028_0033 = 0
C_0028_linear_0034: - act_0034 + xi_0028_0034 = 1
C_0028_linear_0035: - act_0035 + xi_0028_0035 = 0
C_0028_linear_0036: - act_0036 + xi_0028_0036 = 0
C_0028_linear_0037: - act_0037 + xi_0028_0037 = 0
C_0028_linear_0038: - act_0038 + xi_0028_0038 = 0
C_0028_linear_0039: - act_0039 + xi_0028_0039 = 0
C_0028_loss_ge: - 10000 omg_0028 - 0.0111828930987 xi_0028_0000
 + 0.0316585861132 xi_0028_0001 + 0.000106039552982 xi_0028_0002
 + 0.2872356913 xi_0028_0003 + 0.013030358965 xi_0028_0004
 + 0.240120705533 xi_0028_0005 + 0.442580447937 xi_0028_0006
 - 0.375980671537 xi_0028_0007 + 0.392374151169 xi_0028_0008
 + 1.06701819784 xi_0028_0009 - 0.942756746323 xi_0028_0010
 + 0.412027349402 xi_0028_0011 + 0.570359951286 xi_0028_0012
 - 0.852905494999 xi_0028_0013 - 0.323418189169 xi_0028_0014
 + 0.252938924417 xi_0028_0015 - 0.0388599557068 xi_0028_0016
 - 0.020417849004 xi_0028_0017 - 0.119001175529 xi_0028_0018
 + 0.47399163059 xi_0028_0019 - 0.445604107063 xi_0028_0020
 - 0.0184582213876 xi_0028_0021 + 0.307589905785 xi_0028_0022
 + 0.444474821864 xi_0028_0023 - 0.187382383206 xi_0028_0024
 + 0.383302875585 xi_0028_0025 - 0.750161596334 xi_0028_0026
 - 1.33170117681 xi_0028_0027 + 0.0190658885385 xi_0028_0028
 - 0.745784276999 xi_0028_0029 - 0.516231038044 xi_0028_0030
 - 0.409255825925 xi_0028_0031 - 0.0994375517393 xi_0028_0032
 - 0.734256048841 xi_0028_0033 - 0.253933375138 xi_0028_0034
 - 0.256674950149 xi_0028_0035 - 0.732341101218 xi_0028_0036
 - 0.86707443001 xi_0028_0037 - 0.319117177314 xi_0028_0038
 + 0.0697086420108 xi_0028_0039 >= -9998.75705057
C_0028_loss_le: - 10000 omg_0028 - 0.0111828930987 xi_0028_0000
 + 0.0316585861132 xi_0028_0001 + 0.000106039552982 xi_0028_0002
 + 0.2872356913 xi_0028_0003 + 0.013030358965 xi_0028_0004
 + 0.240120705533 xi_0028_0005 + 0.442580447937 xi_0028_0006
 - 0.375980671537 xi_0028_0007 + 0.392374151169 xi_0028_0008
 + 1.06701819784 xi_0028_0009 - 0.942756746323 xi_0028_0010
 + 0.412027349402 xi_0028_0011 + 0.570359951286 xi_0028_0012
 - 0.852905494999 xi_0028_0013 - 0.323418189169 xi_0028_0014
 + 0.252938924417 xi_0028_0015 - 0.0388599557068 xi_0028_0016
 - 0.020417849004 xi_0028_0017 - 0.119001175529 xi_0028_0018
 + 0.47399163059 xi_0028_0019 - 0.445604107063 xi_0028_0020
 - 0.0184582213876 xi_0028_0021 + 0.307589905785 xi_0028_0022
 + 0.444474821864 xi_0028_0023 - 0.187382383206 xi_0028_0024
 + 0.383302875585 xi_0028_0025 - 0.750161596334 xi_0028_0026
 - 1.33170117681 xi_0028_0027 + 0.0190658885385 xi_0028_0028
 - 0.745784276999 xi_0028_0029 - 0.516231038044 xi_0028_0030
 - 0.409255825925 xi_0028_0031 - 0.0994375517393 xi_0028_0032
 - 0.734256048841 xi_0028_0033 - 0.253933375138 xi_0028_0034
 - 0.256674950149 xi_0028_0035 - 0.732341101218 xi_0028_0036
 - 0.86707443001 xi_0028_0037 - 0.319117177314 xi_0028_0038
 + 0.0697086420108 xi_0028_0039 <= 1.24294941651
C_0029_cost_0001: cost_0029 - 0.0384268679769 pi_0001_0000
 - 0.0214900900505 pi_0001_0001 >= 0
C_0029_cost_0002: cost_0029 - 0.00361216872038 pi_0002_0000
 - 0.00347525272179 pi_0002_0001 - 0.00333817582796 pi_0002_0002
 - 0.00320093801326 pi_0002_0003 - 0.0030635392524 pi_0002_0004
 - 0.00292597952037 pi_0002_0005 - 0.00278825879253 pi_0002_0006
 - 0.00265037704454 pi_0002_0007 - 0.00251233425237 pi_0002_0008
 - 0.00237413039234 pi_0002_0009 - 0.00223576544107 pi_0002_0010
 - 0.00209723937552 pi_0002_0011 - 0.00195855217296 pi_0002_0012
 - 0.00181970381099 pi_0002_0013 - 0.00168069426754 pi_0002_0014
 - 0.00154152352087 pi_0002_0015 - 0.00140219154954 pi_0002_0016
 - 0.00126269833246 pi_0002_0017 - 0.00112304384885 pi_0002_0018
 - 0.000983228078269 pi_0002_0019 - 0.000843251000593 pi_0002_0020
 - 0.000703112596029 pi_0002_0021 - 0.00056281284511 pi_0002_0022
 - 0.000422351728695 pi_0002_0023 - 0.000281729227973 pi_0002_0024
 - 0.00014094532446 pi_0002_0025 >= 0
C_0029_cost_0003: cost_0029 >= 0
C_0029_cost_0004: cost_0029 >= 0
C_0029_cost_0005: cost_0029 >= 0
C_0029_cost_0006: cost_0029 >= 0
C_0029_cost_0007: cost_0029 >= 0
C_0029_cost_0008: cost_0029 >= 0
C_0029_cost_0009: cost_0029 >= 0
C_0029_cost_0010: cost_0029 >= 0
C_0029_cost_0011: cost_0029 >= 0
C_0029_cost_0012: cost_0029 >= 0
C_0029_cost_0013: cost_0029 >= 0
C_0029_cost_0014: cost_0029 >= 0
C_0029_cost_0015: cost_0029 >= 0
C_0029_cost_0016: cost_0029 >= 0
C_0029_cost_0017: cost_0029 >= 0
C_0029_cost_0018: cost_0029 >= 0
C_0029_cost_0019: cost_0029 >= 0
C_0029_cost_0020: cost_0029 >= 0
C_0029_cost_0021: cost_0029 >= 0
C_0029_cost_0022: cost_0029 >= 0
C_0029_cost_0023: cost_0029 >= 0
C_0029_cost_0024: cost_0029 >= 0
C_0029_cost_0025: cost_0029 >= 0
C_0029_cost_0026: cost_0029 - 0.0106666652041 pi_0026_0000 >= 0
C_0029_cost_0027: cost_0029 >= 0
C_0029_cost_0028: cost_0029 >= 0
C_0029_cost_0029: cost_0029 - 0.426666385001 pi_0029_0000 >= 0
C_0029_cost_0030: cost_0029 >= 0
C_0029_cost_0031: cost_0029 >= 0
C_0029_cost_0032: cost_0029 >= 0
C_0029_cost_0033: cost_0029 >= 0
C_0029_cost_0034: cost_0029 >= 0
C_0029_cost_0035: cost_0029 >= 0
C_0029_cost_0036: cost_0029 >= 0
C_0029_linear_0000: - act_0000 + xi_0029_0000 = 24
C_0029_linear_0001: - act_0001 + xi_0029_0001 = 6
C_0029_linear_0002: - act_0002 + xi_0029_0002 = 433
C_0029_linear_0003: - act_0003 + xi_0029_0003 = 4
C_0029_linear_0004: - act_0004 + xi_0029_0004 = 2
C_0029_linear_0005: - act_0005 + xi_0029_0005 = 1
C_0029_linear_0006: - act_0006 + xi_0029_0006 = 1
C_0029_linear_0007: - act_0007 + xi_0029_0007 = 0
C_0029_linear_0008: - act_0008 + xi_0029_0008 = 1
C_0029_linear_0009: - act_0009 + xi_0029_0009 = 1
C_0029_linear_0010: - act_0010 + xi_0029_0010 = 0
C_0029_linear_0011: - act_0011 + xi_0029_0011 = 1
C_0029_linear_0012: - act_0012 + xi_0029_0012 = 0
C_0029_linear_0013: - act_0013 + xi_0029_0013 = 0
C_0029_linear_0014: - act_0014 + xi_0029_0014 = 0
C_0029_linear_0015: - act_0015 + xi_0029_0015 = 1
C_0029_linear_0016: - act_0016 + xi_0029_0016 = 0
C_0029_linear_0017: - act_0017 + xi_0029_0017 = 1
C_0029_linear_0018: - act_0018 + xi_0029_0018 = 0
C_0029_linear_0019: - act_0019 + xi_0029_0019 = 1
C_0029_linear_0020: - act_0020 + xi_0029_0020 = 0
C_0029_linear_0021: - act_0021 + xi_0029_0021 = 0
C_0029_linear_0022: - act_0022 + xi_0029_0022 = 0
C_0029_linear_0023: - act_0023 + xi_0029_0023 = 0
C_0029_linear_0024: - act_0024 + xi_0029_0024 = 0
C_0029_linear_0025: - act_0025 + xi_0029_0025 = 0
C_0029_linear_0026: - act_0026 + xi_0029_0026 = 0
C_0029_linear_0027: - act_0027 + xi_0029_0027 = 0
C_0029_linear_0028: - act_0028 + xi_0029_0028 = 1
C_0029_linear_0029: - act_0029 + xi_0029_0029 = 0
C_0029_linear_0030: - act_0030 + xi_0029_0030 = 0
C_0029_linear_0031: - act_0031 + xi_0029_0031 = 0
C_0029_linear_0032: - act_0032 + xi_0029_0032 = 1
C_0029_linear_0033: - act_0033 + xi_0029_0033 = 0
C_0029_linear_0034: - act_0034 + xi_0029_0034 = 0
C_0029_linear_0035: - act_0035 + xi_0029_0035 = 0
C_0029_linear_0036: - act_0036 + xi_0029_0036 = 1
C_0029_linear_0037: - act_0037 + xi_0029_0037 = 0
C_0029_linear_0038: - act_0038 + xi_0029_0038 = 0
C_0029_linear_0039: - act_0039 + xi_0029_0039 = 0
C_0029_loss_ge: - 10000 omg_0029 - 0.0111828930987 xi_0029_0000
 + 0.0316585861132 xi_0029_0001 + 0.000106039552982 xi_0029_0002
 + 0.2872356913 xi_0029_0003 + 0.013030358965 xi_0029_0004
 + 0.240120705533 xi_0029_0005 + 0.442580447937 xi_0029_0006
 - 0.375980671537 xi_0029_0007 + 0.392374151169 xi_0029_0008
 + 1.06701819784 xi_0029_0009 - 0.942756746323 xi_0029_0010
 + 0.412027349402 xi_0029_0011 + 0.570359951286 xi_0029_0012
 - 0.852905494999 xi_0029_0013 - 0.323418189169 xi_0029_0014
 + 0.252938924417 xi_0029_0015 - 0.0388599557068 xi_0029_0016
 - 0.020417849004 xi_0029_0017 - 0.119001175529 xi_0029_0018
 + 0.47399163059 xi_0029_0019 - 0.445604107063 xi_0029_0020
 - 0.0184582213876 xi_0029_0021 + 0.307589905785 xi_0029_0022
 + 0.444474821864 xi_0029_0023 - 0.187382383206 xi_0029_0024
 + 0.383302875585 xi_0029_0025 - 0.750161596334 xi_0029_0026
 - 1.33170117681 xi_0029_0027 + 0.0190658885385 xi_0029_0028
 - 0.745784276999 xi_0029_0029 - 0.516231038044 xi_0029_0030
 - 0.409255825925 xi_0029_0031 - 0.0994375517393 xi_0029_0032
 - 0.734256048841 xi_0029_0033 - 0.253933375138 xi_0029_0034
 - 0.256674950149 xi_0029_0035 - 0.732341101218 xi_0029_0036
 - 0.86707443001 xi_0029_0037 - 0.319117177314 xi_0029_0038
 + 0.0697086420108 xi_0029_0039 >= -9998.75705057
C_0029_loss_le: - 10000 omg_0029 - 0.0111828930987 xi_0029_0000
 + 0.0316585861132 xi_0029_0001 + 0.000106039552982 xi_0029_0002
 + 0.2872356913 xi_0029_0003 + 0.013030358965 xi_0029_0004
 + 0.240120705533 xi_0029_0005 + 0.442580447937 xi_0029_0006
 - 0.375980671537 xi_0029_0007 + 0.392374151169 xi_0029_0008
 + 1.06701819784 xi_0029_0009 - 0.942756746323 xi_0029_0010
 + 0.412027349402 xi_0029_0011 + 0.570359951286 xi_0029_0012
 - 0.852905494999 xi_0029_0013 - 0.323418189169 xi_0029_0014
 + 0.252938924417 xi_0029_0015 - 0.0388599557068 xi_0029_0016
 - 0.020417849004 xi_0029_0017 - 0.119001175529 xi_0029_0018
 + 0.47399163059 xi_0029_0019 - 0.445604107063 xi_0029_0020
 - 0.0184582213876 xi_0029_0021 + 0.307589905785 xi_0029_0022
 + 0.444474821864 xi_0029_0023 - 0.187382383206 xi_0029_0024
 + 0.383302875585 xi_0029_0025 - 0.750161596334 xi_0029_0026
 - 1.33170117681 xi_0029_0027 + 0.0190658885385 xi_0029_0028
 - 0.745784276999 xi_0029_0029 - 0.516231038044 xi_0029_0030
 - 0.409255825925 xi_0029_0031 - 0.0994375517393 xi_0029_0032
 - 0.734256048841 xi_0029_0033 - 0.253933375138 xi_0029_0034
 - 0.256674950149 xi_0029_0035 - 0.732341101218 xi_0029_0036
 - 0.86707443001 xi_0029_0037 - 0.319117177314 xi_0029_0038
 + 0.0697086420108 xi_0029_0039 <= 1.24294941651
C_0030_cost_0001: cost_0030 - 0.0873361949203 pi_0001_0000
 - 0.0442906580929 pi_0001_0001 >= 0
C_0030_cost_0002: cost_0030 - 0.00435056292395 pi_0002_0000
 - 0.00418523261058 pi_0002_0001 - 0.00401974208052 pi_0002_0002
 - 0.00385409136849 pi_0002_0003 - 0.00368828050959 pi_0002_0004
 - 0.00352230953927 pi_0002_0005 - 0.00335617849333 pi_0002_0006
 - 0.00318988740794 pi_0002_0007 - 0.00302343631962 pi_0002_0008
 - 0.00285682526524 pi_0002_0009 - 0.00269005428204 pi_0002_0010
 - 0.00252312340762 pi_0002_0011 - 0.00235603267991 pi_0002_0012
 - 0.00218878213723 pi_0002_0013 - 0.00202137181824 pi_0002_0014
 - 0.00185380176197 pi_0002_0015 - 0.00168607200778 pi_0002_0016
 - 0.00151818259543 pi_0002_0017 - 0.00135013356499 pi_0002_0018
 - 0.00118192495693 pi_0002_0019 - 0.00101355681205 pi_0002_0020
 - 0.000845029171522 pi_0002_0021 - 0.000676342076867 pi_0002_0022
 - 0.000507495569968 pi_0002_0023 - 0.000338489693066 pi_0002_0024
 - 0.000169324488758 pi_0002_0025 >= 0
C_0030_cost_0003: cost_0030 >= 0
C_0030_cost_0004: cost_0030 >= 0
C_0030_cost_0005: cost_0030 >= 0
C_0030_cost_0006: cost_0030 >= 0
C_0030_cost_0007: cost_0030 >= 0
C_0030_cost_0008: cost_0030 >= 0
C_0030_cost_0009: cost_0030 >= 0
C_0030_cost_0010: cost_0030 >= 0
C_0030_cost_0011: cost_0030 >= 0
C_0030_cost_0012: cost_0030 >= 0
C_0030_cost_0013: cost_0030 >= 0
C_0030_cost_0014: cost_0030 >= 0
C_0030_cost_0015: cost_0030 >= 0
C_0030_cost_0016: cost_0030 >= 0
C_0030_cost_0017: cost_0030 >= 0
C_0030_cost_0018: cost_0030 >= 0
C_0030_cost_0019: cost_0030 >= 0
C_0030_cost_0020: cost_0030 >= 0
C_0030_cost_0021: cost_0030 >= 0
C_0030_cost_0022: cost_0030 >= 0
C_0030_cost_0023: cost_0030 >= 0
C_0030_cost_0024: cost_0030 >= 0
C_0030_cost_0025: cost_0030 >= 0
C_0030_cost_0026: cost_0030 - 0.0106666652041 pi_0026_0000 >= 0
C_0030_cost_0027: cost_0030 >= 0
C_0030_cost_0028: cost_0030 >= 0
C_0030_cost_0029: cost_0030 - 0.426666385001 pi_0029_0000 >= 0
C_0030_cost_0030: cost_0030 >= 0
C_0030_cost_0031: cost_0030 >= 0
C_0030_cost_0032: cost_0030 >= 0
C_0030_cost_0033: cost_0030 >= 0
C_0030_cost_0034: cost_0030 >= 0
C_0030_cost_0035: cost_0030 >= 0
C_0030_cost_0036: cost_0030 >= 0
C_0030_linear_0000: - act_0000 + xi_0030_0000 = 26
C_0030_linear_0001: - act_0001 + xi_0030_0001 = 12
C_0030_linear_0002: - act_0002 + xi_0030_0002 = 609
C_0030_linear_0003: - act_0003 + xi_0030_0003 = 4
C_0030_linear_0004: - act_0004 + xi_0030_0004 = 1
C_0030_linear_0005: - act_0005 + xi_0030_0005 = 1
C_0030_linear_0006: - act_0006 + xi_0030_0006 = 0
C_0030_linear_0007: - act_0007 + xi_0030_0007 = 0
C_0030_linear_0008: - act_0008 + xi_0030_0008 = 1
C_0030_linear_0009: - act_0009 + xi_0030_0009 = 1
C_0030_linear_0010: - act_0010 + xi_0030_0010 = 0
C_0030_linear_0011: - act_0011 + xi_0030_0011 = 0
C_0030_linear_0012: - act_0012 + xi_0030_0012 = 0
C_0030_linear_0013: - act_0013 + xi_0030_0013 = 0
C_0030_linear_0014: - act_0014 + xi_0030_0014 = 1
C_0030_linear_0015: - act_0015 + xi_0030_0015 = 0
C_0030_linear_0016: - act_0016 + xi_0030_0016 = 0
C_0030_linear_0017: - act_0017 + xi_0030_0017 = 0
C_0030_linear_0018: - act_0018 + xi_0030_0018 = 1
C_0030_linear_0019: - act_0019 + xi_0030_0019 = 0
C_0030_linear_0020: - act_0020 + xi_0030_0020 = 0
C_0030_linear_0021: - act_0021 + xi_0030_0021 = 0
C_0030_linear_0022: - act_0022 + xi_0030_0022 = 0
C_0030_linear_0023: - act_0023 + xi_0030_0023 = 0
C_0030_linear_0024: - act_0024 + xi_0030_0024 = 0
C_0030_linear_0025: - act_0025 + xi_0030_0025 = 0
C_0030_linear_0026: - act_0026 + xi_0030_0026 = 0
C_0030_linear_0027: - act_0027 + xi_0030_0027 = 0
C_0030_linear_0028: - act_0028 + xi_0030_0028 = 1
C_0030_linear_0029: - act_0029 + xi_0030_0029 = 0
C_0030_linear_0030: - act_0030 + xi_0030_0030 = 0
C_0030_linear_0031: - act_0031 + xi_0030_0031 = 0
C_0030_linear_0032: - act_0032 + xi_0030_0032 = 0
C_0030_linear_0033: - act_0033 + xi_0030_0033 = 1
C_0030_linear_0034: - act_0034 + xi_0030_0034 = 1
C_0030_linear_0035: - act_0035 + xi_0030_0035 = 0
C_0030_linear_0036: - act_0036 + xi_0030_0036 = 0
C_0030_linear_0037: - act_0037 + xi_0030_0037 = 0
C_0030_linear_0038: - act_0038 + xi_0030_0038 = 0
C_0030_linear_0039: - act_0039 + xi_0030_0039 = 0
C_0030_loss_ge: - 10000 omg_0030 - 0.0111828930987 xi_0030_0000
 + 0.0316585861132 xi_0030_0001 + 0.000106039552982 xi_0030_0002
 + 0.2872356913 xi_0030_0003 + 0.013030358965 xi_0030_0004
 + 0.240120705533 xi_0030_0005 + 0.442580447937 xi_0030_0006
 - 0.375980671537 xi_0030_0007 + 0.392374151169 xi_0030_0008
 + 1.06701819784 xi_0030_0009 - 0.942756746323 xi_0030_0010
 + 0.412027349402 xi_0030_0011 + 0.570359951286 xi_0030_0012
 - 0.852905494999 xi_0030_0013 - 0.323418189169 xi_0030_0014
 + 0.252938924417 xi_0030_0015 - 0.0388599557068 xi_0030_0016
 - 0.020417849004 xi_0030_0017 - 0.119001175529 xi_0030_0018
 + 0.47399163059 xi_0030_0019 - 0.445604107063 xi_0030_0020
 - 0.0184582213876 xi_0030_0021 + 0.307589905785 xi_0030_0022
 + 0.444474821864 xi_0030_0023 - 0.187382383206 xi_0030_0024
 + 0.383302875585 xi_0030_0025 - 0.750161596334 xi_0030_0026
 - 1.33170117681 xi_0030_0027 + 0.0190658885385 xi_0030_0028
 - 0.745784276999 xi_0030_0029 - 0.516231038044 xi_0030_0030
 - 0.409255825925 xi_0030_0031 - 0.0994375517393 xi_0030_0032
 - 0.734256048841 xi_0030_0033 - 0.253933375138 xi_0030_0034
 - 0.256674950149 xi_0030_0035 - 0.732341101218 xi_0030_0036
 - 0.86707443001 xi_0030_0037 - 0.319117177314 xi_0030_0038
 + 0.0697086420108 xi_0030_0039 >= -9998.75705057
C_0030_loss_le: - 10000 omg_0030 - 0.0111828930987 xi_0030_0000
 + 0.0316585861132 xi_0030_0001 + 0.000106039552982 xi_0030_0002
 + 0.2872356913 xi_0030_0003 + 0.013030358965 xi_0030_0004
 + 0.240120705533 xi_0030_0005 + 0.442580447937 xi_0030_0006
 - 0.375980671537 xi_0030_0007 + 0.392374151169 xi_0030_0008
 + 1.06701819784 xi_0030_0009 - 0.942756746323 xi_0030_0010
 + 0.412027349402 xi_0030_0011 + 0.570359951286 xi_0030_0012
 - 0.852905494999 xi_0030_0013 - 0.323418189169 xi_0030_0014
 + 0.252938924417 xi_0030_0015 - 0.0388599557068 xi_0030_0016
 - 0.020417849004 xi_0030_0017 - 0.119001175529 xi_0030_0018
 + 0.47399163059 xi_0030_0019 - 0.445604107063 xi_0030_0020
 - 0.0184582213876 xi_0030_0021 + 0.307589905785 xi_0030_0022
 + 0.444474821864 xi_0030_0023 - 0.187382383206 xi_0030_0024
 + 0.383302875585 xi_0030_0025 - 0.750161596334 xi_0030_0026
 - 1.33170117681 xi_0030_0027 + 0.0190658885385 xi_0030_0028
 - 0.745784276999 xi_0030_0029 - 0.516231038044 xi_0030_0030
 - 0.409255825925 xi_0030_0031 - 0.0994375517393 xi_0030_0032
 - 0.734256048841 xi_0030_0033 - 0.253933375138 xi_0030_0034
 - 0.256674950149 xi_0030_0035 - 0.732341101218 xi_0030_0036
 - 0.86707443001 xi_0030_0037 - 0.319117177314 xi_0030_0038
 + 0.0697086420108 xi_0030_0039 <= 1.24294941651
C_0031_cost_0001: cost_0031 - 0.0653909198978 pi_0001_0000
 - 0.0317669758175 pi_0001_0001 >= 0
C_0031_cost_0002: cost_0031 - 0.00674139530989 pi_0002_0000
 - 0.00648228826583 pi_0002_0001 - 0.00622316545138 pi_0002_0002
 - 0.0059640270646 pi_0002_0003 - 0.00570487330343 pi_0002_0004
 - 0.0054457043657 pi_0002_0005 - 0.00518652044913 pi_0002_0006
 - 0.00492732175132 pi_0002_0007 - 0.00466810846975 pi_0002_0008
 - 0.00440888080179 pi_0002_0009 - 0.00414963894469 pi_0002_0010
 - 0.00389038309558 pi_0002_0011 - 0.00363111345148 pi_0002_0012
 - 0.00337183020928 pi_0002_0013 - 0.00311253356575 pi_0002_0014
 - 0.00285322371755 pi_0002_0015 - 0.00259390086121 pi_0002_0016
 - 0.00233456519314 pi_0002_0017 - 0.00207521690963 pi_0002_0018
 - 0.00181585620686 pi_0002_0019 - 0.00155648328086 pi_0002_0020
 - 0.00129709832756 pi_0002_0021 - 0.00103770154275 pi_0002_0022
 - 0.000778293122105 pi_0002_0023 - 0.000518873261172 pi_0002_0024
 - 0.000259442155372 pi_0002_0025 >= 0
C_0031_cost_0003: cost_0031 >= 0
C_0031_cost_0004: cost_0031 >= 0
C_0031_cost_0005: cost_0031 >= 0
C_0031_cost_0006: cost_0031 >= 0
C_0031_cost_0007: cost_0031 >= 0
C_0031_cost_0008: cost_0031 >= 0
C_0031_cost_0009: cost_0031 >= 0
C_0031_cost_0010: cost_0031 >= 0
C_0031_cost_0011: cost_0031 >= 0
C_0031_cost_0012: cost_0031 >= 0
C_0031_cost_0013: cost_0031 >= 0
C_0031_cost_0014: cost_0031 >= 0
C_0031_cost_0015: cost_0031 >= 0
C_0031_cost_0016: cost_0031 >= 0
C_0031_cost_0017: cost_0031 >= 0
C_0031_cost_0018: cost_0031 >= 0
C_0031_cost_0019: cost_0031 >= 0
C_0031_cost_0020: cost_0031 >= 0
C_0031_cost_0021: cost_0031 >= 0
C_0031_cost_0022: cost_0031 >= 0
C_0031_cost_0023: cost_0031 >= 0
C_0031_cost_0024: cost_0031 >= 0
C_0031_cost_0025: cost_0031 >= 0
C_0031_cost_0026: cost_0031 - 0.0106666652041 pi_0026_0000 >= 0
C_0031_cost_0027: cost_0031 >= 0
C_0031_cost_0028: cost_0031 >= 0
C_0031_cost_0029: cost_0031 - 0.426666385001 pi_0029_0000 >= 0
C_0031_cost_0030: cost_0031 >= 0
C_0031_cost_0031: cost_0031 >= 0
C_0031_cost_0032: cost_0031 >= 0
C_0031_cost_0033: cost_0031 >= 0
C_0031_cost_0034: cost_0031 >= 0
C_0031_cost_0035: cost_0031 >= 0
C_0031_cost_0036: cost_0031 >= 0
C_0031_linear_0000: - act_0000 + xi_0031_0000 = 43
C_0031_linear_0001: - act_0001 + xi_0031_0001 = 18
C_0031_linear_0002: - act_0002 + xi_0031_0002 = 1533
C_0031_linear_0003: - act_0003 + xi_0031_0003 = 4
C_0031_linear_0004: - act_0004 + xi_0031_0004 = 1
C_0031_linear_0005: - act_0005 + xi_0031_0005 = 1
C_0031_linear_0006: - act_0006 + xi_0031_0006 = 1
C_0031_linear_0007: - act_0007 + xi_0031_0007 = 0
C_0031_linear_0008: - act_0008 + xi_0031_0008 = 1
C_0031_linear_0009: - act_0009 + xi_0031_0009 = 0
C_0031_linear_0010: - act_0010 + xi_0031_0010 = 0
C_0031_linear_0011: - act_0011 + xi_0031_0011 = 0
C_0031_linear_0012: - act_0012 + xi_0031_0012 = 1
C_0031_linear_0013: - act_0013 + xi_0031_0013 = 0
C_0031_linear_0014: - act_0014 + xi_0031_0014 = 1
C_0031_linear_0015: - act_0015 + xi_0031_0015 = 0
C_0031_linear_0016: - act_0016 + xi_0031_0016 = 0
C_0031_linear_0017: - act_0017 + xi_0031_0017 = 0
C_0031_linear_0018: - act_0018 + xi_0031_0018 = 0
C_0031_linear_0019: - act_0019 + xi_0031_0019 = 0
C_0031_linear_0020: - act_0020 + xi_0031_0020 = 0
C_0031_linear_0021: - act_0021 + xi_0031_0021 = 1
C_0031_linear_0022: - act_0022 + xi_0031_0022 = 0
C_0031_linear_0023: - act_0023 + xi_0031_0023 = 0
C_0031_linear_0024: - act_0024 + xi_0031_0024 = 0
C_0031_linear_0025: - act_0025 + xi_0031_0025 = 0
C_0031_linear_0026: - act_0026 + xi_0031_0026 = 0
C_0031_linear_0027: - act_0027 + xi_0031_0027 = 0
C_0031_linear_0028: - act_0028 + xi_0031_0028 = 1
C_0031_linear_0029: - act_0029 + xi_0031_0029 = 0
C_0031_linear_0030: - act_0030 + xi_0031_0030 = 0
C_0031_linear_0031: - act_0031 + xi_0031_0031 = 1
C_0031_linear_0032: - act_0032 + xi_0031_0032 = 0
C_0031_linear_0033: - act_0033 + xi_0031_0033 = 0
C_0031_linear_0034: - act_0034 + xi_0031_0034 = 1
C_0031_linear_0035: - act_0035 + xi_0031_0035 = 0
C_0031_linear_0036: - act_0036 + xi_0031_0036 = 0
C_0031_linear_0037: - act_0037 + xi_0031_0037 = 0
C_0031_linear_0038: - act_0038 + xi_0031_0038 = 0
C_0031_linear_0039: - act_0039 + xi_0031_0039 = 1
C_0031_loss_ge: - 10000 omg_0031 - 0.0111828930987 xi_0031_0000
 + 0.0316585861132 xi_0031_0001 + 0.000106039552982 xi_0031_0002
 + 0.2872356913 xi_0031_0003 + 0.013030358965 xi_0031_0004
 + 0.240120705533 xi_0031_0005 + 0.442580447937 xi_0031_0006
 - 0.375980671537 xi_0031_0007 + 0.392374151169 xi_0031_0008
 + 1.06701819784 xi_0031_0009 - 0.942756746323 xi_0031_0010
 + 0.412027349402 xi_0031_0011 + 0.570359951286 xi_0031_0012
 - 0.852905494999 xi_0031_0013 - 0.323418189169 xi_0031_0014
 + 0.252938924417 xi_0031_0015 - 0.0388599557068 xi_0031_0016
 - 0.020417849004 xi_0031_0017 - 0.119001175529 xi_0031_0018
 + 0.47399163059 xi_0031_0019 - 0.445604107063 xi_0031_0020
 - 0.0184582213876 xi_0031_0021 + 0.307589905785 xi_0031_0022
 + 0.444474821864 xi_0031_0023 - 0.187382383206 xi_0031_0024
 + 0.383302875585 xi_0031_0025 - 0.750161596334 xi_0031_0026
 - 1.33170117681 xi_0031_0027 + 0.0190658885385 xi_0031_0028
 - 0.745784276999 xi_0031_0029 - 0.516231038044 xi_0031_0030
 - 0.409255825925 xi_0031_0031 - 0.0994375517393 xi_0031_0032
 - 0.734256048841 xi_0031_0033 - 0.253933375138 xi_0031_0034
 - 0.256674950149 xi_0031_0035 - 0.732341101218 xi_0031_0036
 - 0.86707443001 xi_0031_0037 - 0.319117177314 xi_0031_0038
 + 0.0697086420108 xi_0031_0039 >= -9998.75705057
C_0031_loss_le: - 10000 omg_0031 - 0.0111828930987 xi_0031_0000
 + 0.0316585861132 xi_0031_0001 + 0.000106039552982 xi_0031_0002
 + 0.2872356913 xi_0031_0003 + 0.013030358965 xi_0031_0004
 + 0.240120705533 xi_0031_0005 + 0.442580447937 xi_0031_0006
 - 0.375980671537 xi_0031_0007 + 0.392374151169 xi_0031_0008
 + 1.06701819784 xi_0031_0009 - 0.942756746323 xi_0031_0010
 + 0.412027349402 xi_0031_0011 + 0.570359951286 xi_0031_0012
 - 0.852905494999 xi_0031_0013 - 0.323418189169 xi_0031_0014
 + 0.252938924417 xi_0031_0015 - 0.0388599557068 xi_0031_0016
 - 0.020417849004 xi_0031_0017 - 0.119001175529 xi_0031_0018
 + 0.47399163059 xi_0031_0019 - 0.445604107063 xi_0031_0020
 - 0.0184582213876 xi_0031_0021 + 0.307589905785 xi_0031_0022
 + 0.444474821864 xi_0031_0023 - 0.187382383206 xi_0031_0024
 + 0.383302875585 xi_0031_0025 - 0.750161596334 xi_0031_0026
 - 1.33170117681 xi_0031_0027 + 0.0190658885385 xi_0031_0028
 - 0.745784276999 xi_0031_0029 - 0.516231038044 xi_0031_0030
 - 0.409255825925 xi_0031_0031 - 0.0994375517393 xi_0031_0032
 - 0.734256048841 xi_0031_0033 - 0.253933375138 xi_0031_0034
 - 0.256674950149 xi_0031_0035 - 0.732341101218 xi_0031_0036
 - 0.86707443001 xi_0031_0037 - 0.319117177314 xi_0031_0038
 + 0.0697086420108 xi_0031_0039 <= 1.24294941651
C_0032_cost_0001: cost_0032 - 0.0653909198978 pi_0001_0000
 - 0.0317669758175 pi_0001_0001 >= 0
C_0032_cost_0002: cost_0032 - 0.00674734718745 pi_0002_0000
 - 0.00648796223415 pi_0002_0001 - 0.00622856544934 pi_0002_0002
 - 0.0059691570287 pi_0002_0003 - 0.00570973716776 pi_0002_0004
 - 0.00545030606196 pi_0002_0005 - 0.00519086390659 pi_0002_0006
 - 0.00493141089681 pi_0002_0007 - 0.00467194722767 pi_0002_0008
 - 0.00441247309408 pi_0002_0009 - 0.00415298869081 pi_0002_0010
 - 0.00389349421253 pi_0002_0011 - 0.00363398985376 pi_0002_0012
 - 0.00337447580889 pi_0002_0013 - 0.0031149522722 pi_0002_0014
 - 0.0028554194378 pi_0002_0015 - 0.0025958774997 pi_0002_0016
 - 0.00233632665177 pi_0002_0017 - 0.00207676708775 pi_0002_0018
 - 0.00181719900123 pi_0002_0019 - 0.00155762258568 pi_0002_0020
 - 0.00129803803444 pi_0002_0021 - 0.0010384455407 pi_0002_0022
 - 0.000778845297531 pi_0002_0023 - 0.000519237497854 pi_0002_0024
 - 0.00025962233446 pi_0002_0025 >= 0
C_0032_cost_0003: cost_0032 >= 0
C_0032_cost_0004: cost_0032 >= 0
C_0032_cost_0005: cost_0032 >= 0
C_0032_cost_0006: cost_0032 >= 0
C_0032_cost_0007: cost_0032 >= 0
C_0032_cost_0008: cost_0032 >= 0
C_0032_cost_0009: cost_0032 >= 0
C_0032_cost_0010: cost_0032 >= 0
C_0032_cost_0011: cost_0032 >= 0
C_0032_cost_0012: cost_0032 >= 0
C_0032_cost_0013: cost_0032 >= 0
C_0032_cost_0014: cost_0032 >= 0
C_0032_cost_0015: cost_0032 >= 0
C_0032_cost_0016: cost_0032 >= 0
C_0032_cost_0017: cost_0032 >= 0
C_0032_cost_0018: cost_0032 >= 0
C_0032_cost_0019: cost_0032 >= 0
C_0032_cost_0020: cost_0032 >= 0
C_0032_cost_0021: cost_0032 >= 0
C_0032_cost_0022: cost_0032 >= 0
C_0032_cost_0023: cost_0032 >= 0
C_0032_cost_0024: cost_0032 >= 0
C_0032_cost_0025: cost_0032 >= 0
C_0032_cost_0026: cost_0032 - 0.0106666652041 pi_0026_0000 >= 0
C_0032_cost_0027: cost_0032 >= 0
C_0032_cost_0028: cost_0032 >= 0
C_0032_cost_0029: cost_0032 - 0.426666385001 pi_0029_0000 >= 0
C_0032_cost_0030: cost_0032 >= 0
C_0032_cost_0031: cost_0032 >= 0
C_0032_cost_0032: cost_0032 >= 0
C_0032_cost_0033: cost_0032 >= 0
C_0032_cost_0034: cost_0032 >= 0
C_0032_cost_0035: cost_0032 >= 0
C_0032_cost_0036: cost_0032 >= 0
C_0032_linear_0000: - act_0000 + xi_0032_0000 = 44
C_0032_linear_0001: - act_0001 + xi_0032_0001 = 18
C_0032_linear_0002: - act_0002 + xi_0032_0002 = 1553
C_0032_linear_0003: - act_0003 + xi_0032_0003 = 4
C_0032_linear_0004: - act_0004 + xi_0032_0004 = 3
C_0032_linear_0005: - act_0005 + xi_0032_0005 = 1
C_0032_linear_0006: - act_0006 + xi_0032_0006 = 0
C_0032_linear_0007: - act_0007 + xi_0032_0007 = 0
C_0032_linear_0008: - act_0008 + xi_0032_0008 = 1
C_0032_linear_0009: - act_0009 + xi_0032_0009 = 1
C_0032_linear_0010: - act_0010 + xi_0032_0010 = 0
C_0032_linear_0011: - act_0011 + xi_0032_0011 = 1
C_0032_linear_0012: - act_0012 + xi_0032_0012 = 0
C_0032_linear_0013: - act_0013 + xi_0032_0013 = 0
C_0032_linear_0014: - act_0014 + xi_0032_0014 = 1
C_0032_linear_0015: - act_0015 + xi_0032_0015 = 0
C_0032_linear_0016: - act_0016 + xi_0032_0016 = 0
C_0032_linear_0017: - act_0017 + xi_0032_0017 = 1
C_0032_linear_0018: - act_0018 + xi_0032_0018 = 0
C_0032_linear_0019: - act_0019 + xi_0032_0019 = 0
C_0032_linear_0020: - act_0020 + xi_0032_0020 = 0
C_0032_linear_0021: - act_0021 + xi_0032_0021 = 1
C_0032_linear_0022: - act_0022 + xi_0032_0022 = 0
C_0032_linear_0023: - act_0023 + xi_0032_0023 = 0
C_0032_linear_0024: - act_0024 + xi_0032_0024 = 0
C_0032_linear_0025: - act_0025 + xi_0032_0025 = 0
C_0032_linear_0026: - act_0026 + xi_0032_0026 = 0
C_0032_linear_0027: - act_0027 + xi_0032_0027 = 0
C_0032_linear_0028: - act_0028 + xi_0032_0028 = 0
C_0032_linear_0029: - act_0029 + xi_0032_0029 = 0
C_0032_linear_0030: - act_0030 + xi_0032_0030 = 1
C_0032_linear_0031: - act_0031 + xi_0032_0031 = 1
C_0032_linear_0032: - act_0032 + xi_0032_0032 = 0
C_0032_linear_0033: - act_0033 + xi_0032_0033 = 0
C_0032_linear_0034: - act_0034 + xi_0032_0034 = 1
C_0032_linear_0035: - act_0035 + xi_0032_0035 = 0
C_0032_linear_0036: - act_0036 + xi_0032_0036 = 0
C_0032_linear_0037: - act_0037 + xi_0032_0037 = 0
C_0032_linear_0038: - act_0038 + xi_0032_0038 = 1
C_0032_linear_0039: - act_0039 + xi_0032_0039 = 1
C_0032_loss_ge: - 10000 omg_0032 - 0.0111828930987 xi_0032_0000
 + 0.0316585861132 xi_0032_0001 + 0.000106039552982 xi_0032_0002
 + 0.2872356913 xi_0032_0003 + 0.013030358965 xi_0032_0004
 + 0.240120705533 xi_0032_0005 + 0.442580447937 xi_0032_0006
 - 0.375980671537 xi_0032_0007 + 0.392374151169 xi_0032_0008
 + 1.06701819784 xi_0032_0009 - 0.942756746323 xi_0032_0010
 + 0.412027349402 xi_0032_0011 + 0.570359951286 xi_0032_0012
 - 0.852905494999 xi_0032_0013 - 0.323418189169 xi_0032_0014
 + 0.252938924417 xi_0032_0015 - 0.0388599557068 xi_0032_0016
 - 0.020417849004 xi_0032_0017 - 0.119001175529 xi_0032_0018
 + 0.47399163059 xi_0032_0019 - 0.445604107063 xi_0032_0020
 - 0.0184582213876 xi_0032_0021 + 0.307589905785 xi_0032_0022
 + 0.444474821864 xi_0032_0023 - 0.187382383206 xi_0032_0024
 + 0.383302875585 xi_0032_0025 - 0.750161596334 xi_0032_0026
 - 1.33170117681 xi_0032_0027 + 0.0190658885385 xi_0032_0028
 - 0.745784276999 xi_0032_0029 - 0.516231038044 xi_0032_0030
 - 0.409255825925 xi_0032_0031 - 0.0994375517393 xi_0032_0032
 - 0.734256048841 xi_0032_0033 - 0.253933375138 xi_0032_0034
 - 0.256674950149 xi_0032_0035 - 0.732341101218 xi_0032_0036
 - 0.86707443001 xi_0032_0037 - 0.319117177314 xi_0032_0038
 + 0.0697086420108 xi_0032_0039 >= -9998.75705057
C_0032_loss_le: - 10000 omg_0032 - 0.0111828930987 xi_0032_0000
 + 0.0316585861132 xi_0032_0001 + 0.000106039552982 xi_0032_0002
 + 0.2872356913 xi_0032_0003 + 0.013030358965 xi_0032_0004
 + 0.240120705533 xi_0032_0005 + 0.442580447937 xi_0032_0006
 - 0.375980671537 xi_0032_0007 + 0.392374151169 xi_0032_0008
 + 1.06701819784 xi_0032_0009 - 0.942756746323 xi_0032_0010
 + 0.412027349402 xi_0032_0011 + 0.570359951286 xi_0032_0012
 - 0.852905494999 xi_0032_0013 - 0.323418189169 xi_0032_0014
 + 0.252938924417 xi_0032_0015 - 0.0388599557068 xi_0032_0016
 - 0.020417849004 xi_0032_0017 - 0.119001175529 xi_0032_0018
 + 0.47399163059 xi_0032_0019 - 0.445604107063 xi_0032_0020
 - 0.0184582213876 xi_0032_0021 + 0.307589905785 xi_0032_0022
 + 0.444474821864 xi_0032_0023 - 0.187382383206 xi_0032_0024
 + 0.383302875585 xi_0032_0025 - 0.750161596334 xi_0032_0026
 - 1.33170117681 xi_0032_0027 + 0.0190658885385 xi_0032_0028
 - 0.745784276999 xi_0032_0029 - 0.516231038044 xi_0032_0030
 - 0.409255825925 xi_0032_0031 - 0.0994375517393 xi_0032_0032
 - 0.734256048841 xi_0032_0033 - 0.253933375138 xi_0032_0034
 - 0.256674950149 xi_0032_0035 - 0.732341101218 xi_0032_0036
 - 0.86707443001 xi_0032_0037 - 0.319117177314 xi_0032_0038
 + 0.0697086420108 xi_0032_0039 <= 1.24294941651
C_0033_cost_0001: cost_0033 - 0.0672952094184 pi_0001_0000
 - 0.0360319142459 pi_0001_0001 >= 0
C_0033_cost_0002: cost_0033 - 0.0067463192271 pi_0002_0000
 - 0.00648698355903 pi_0002_0001 - 0.00622763527552 pi_0002_0002
 - 0.00596827457275 pi_0002_0003 - 0.00570890164675 pi_0002_0004
 - 0.00544951669345 pi_0002_0005 - 0.00519011990864 pi_0002_0006
 - 0.00493071148799 pi_0002_0007 - 0.00467129162706 pi_0002_0008
 - 0.00441186052126 pi_0002_0009 - 0.00415241836589 pi_0002_0010
 - 0.00389296535611 pi_0002_0011 - 0.00363350168697 pi_0002_0012
 - 0.00337402755337 pi_0002_0013 - 0.00311454315011 pi_0002_0014
 - 0.00285504867183 pi_0002_0015 - 0.00259554431306 pi_0002_0016
 - 0.00233603026819 pi_0002_0017 - 0.0020765067315 pi_0002_0018
 - 0.0018169738971 pi_0002_0019 - 0.001557431959 pi_0002_0020
 - 0.00129788111107 pi_0002_0021 - 0.00103832154704 pi_0002_0022
 - 0.000778753460524 pi_0002_0023 - 0.000519177044977 pi_0002_0024
 - 0.000259592493737 pi_0002_0025 >= 0
C_0033_cost_0003: cost_0033 >= 0
C_0033_cost_0004: cost_0033 >= 0
C_0033_cost_0005: cost_0033 >= 0
C_0033_cost_0006: cost_0033 >= 0
C_0033_cost_0007: cost_0033 >= 0
C_0033_cost_0008: cost_0033 >= 0
C_0033_cost_0009: cost_0033 >= 0
C_0033_cost_0010: cost_0033 >= 0
C_0033_cost_0011: cost_0033 >= 0
C_0033_cost_0012: cost_0033 >= 0
C_0033_cost_0013: cost_0033 >= 0
C_0033_cost_0014: cost_0033 >= 0
C_0033_cost_0015: cost_0033 >= 0
C_0033_cost_0016: cost_0033 >= 0
C_0033_cost_0017: cost_0033 >= 0
C_0033_cost_0018: cost_0033 >= 0
C_0033_cost_0019: cost_0033 >= 0
C_0033_cost_0020: cost_0033 >= 0
C_0033_cost_0021: cost_0033 >= 0
C_0033_cost_0022: cost_0033 >= 0
C_0033_cost_0023: cost_0033 >= 0
C_0033_cost_0024: cost_0033 >= 0
C_0033_cost_0025: cost_0033 >= 0
C_0033_cost_0026: cost_0033 - 0.0106666652041 pi_0026_0000 >= 0
C_0033_cost_0027: cost_0033 >= 0
C_0033_cost_0028: cost_0033 >= 0
C_0033_cost_0029: cost_0033 - 0.426666385001 pi_0029_0000 >= 0
C_0033_cost_0030: cost_0033 >= 0
C_0033_cost_0031: cost_0033 >= 0
C_0033_cost_0032: cost_0033 >= 0
C_0033_cost_0033: cost_0033 >= 0
C_0033_cost_0034: cost_0033 >= 0
C_0033_cost_0035: cost_0033 >= 0
C_0033_cost_0036: cost_0033 >= 0
C_0033_linear_0000: - act_0000 + xi_0033_0000 = 35
C_0033_linear_0001: - act_0001 + xi_0033_0001 = 9
C_0033_linear_0002: - act_0002 + xi_0033_0002 = 1549
C_0033_linear_0003: - act_0003 + xi_0033_0003 = 4
C_0033_linear_0004: - act_0004 + xi_0033_0004 = 2
C_0033_linear_0005: - act_0005 + xi_0033_0005 = 1
C_0033_linear_0006: - act_0006 + xi_0033_0006 = 0
C_0033_linear_0007: - act_0007 + xi_0033_0007 = 0
C_0033_linear_0008: - act_0008 + xi_0033_0008 = 1
C_0033_linear_0009: - act_0009 + xi_0033_0009 = 0
C_0033_linear_0010: - act_0010 + xi_0033_0010 = 0
C_0033_linear_0011: - act_0011 + xi_0033_0011 = 0
C_0033_linear_0012: - act_0012 + xi_0033_0012 = 0
C_0033_linear_0013: - act_0013 + xi_0033_0013 = 0
C_0033_linear_0014: - act_0014 + xi_0033_0014 = 1
C_0033_linear_0015: - act_0015 + xi_0033_0015 = 0
C_0033_linear_0016: - act_0016 + xi_0033_0016 = 0
C_0033_linear_0017: - act_0017 + xi_0033_0017 = 0
C_0033_linear_0018: - act_0018 + xi_0033_0018 = 0
C_0033_linear_0019: - act_0019 + xi_0033_0019 = 0
C_0033_linear_0020: - act_0020 + xi_0033_0020 = 0
C_0033_linear_0021: - act_0021 + xi_0033_0021 = 0
C_0033_linear_0022: - act_0022 + xi_0033_0022 = 0
C_0033_linear_0023: - act_0023 + xi_0033_0023 = 1
C_0033_linear_0024: - act_0024 + xi_0033_0024 = 0
C_0033_linear_0025: - act_0025 + xi_0033_0025 = 0
C_0033_linear_0026: - act_0026 + xi_0033_0026 = 0
C_0033_linear_0027: - act_0027 + xi_0033_0027 = 0
C_0033_linear_0028: - act_0028 + xi_0033_0028 = 1
C_0033_linear_0029: - act_0029 + xi_0033_0029 = 0
C_0033_linear_0030: - act_0030 + xi_0033_0030 = 0
C_0033_linear_0031: - act_0031 + xi_0033_0031 = 0
C_0033_linear_0032: - act_0032 + xi_0033_0032 = 1
C_0033_linear_0033: - act_0033 + xi_0033_0033 = 0
C_0033_linear_0034: - act_0034 + xi_0033_0034 = 1
C_0033_linear_0035: - act_0035 + xi_0033_0035 = 0
C_0033_linear_0036: - act_0036 + xi_0033_0036 = 0
C_0033_linear_0037: - act_0037 + xi_0033_0037 = 0
C_0033_linear_0038: - act_0038 + xi_0033_0038 = 1
C_0033_linear_0039: - act_0039 + xi_0033_0039 = 1
C_0033_loss_ge: - 10000 omg_0033 - 0.0111828930987 xi_0033_0000
 + 0.0316585861132 xi_0033_0001 + 0.000106039552982 xi_0033_0002
 + 0.2872356913 xi_0033_0003 + 0.013030358965 xi_0033_0004
 + 0.240120705533 xi_0033_0005 + 0.442580447937 xi_0033_0006
 - 0.375980671537 xi_0033_0007 + 0.392374151169 xi_0033_0008
 + 1.06701819784 xi_0033_0009 - 0.942756746323 xi_0033_0010
 + 0.412027349402 xi_0033_0011 + 0.570359951286 xi_0033_0012
 - 0.852905494999 xi_0033_0013 - 0.323418189169 xi_0033_0014
 + 0.252938924417 xi_0033_0015 - 0.0388599557068 xi_0033_0016
 - 0.020417849004 xi_0033_0017 - 0.119001175529 xi_0033_0018
 + 0.47399163059 xi_0033_0019 - 0.445604107063 xi_0033_0020
 - 0.0184582213876 xi_0033_0021 + 0.307589905785 xi_0033_0022
 + 0.444474821864 xi_0033_0023 - 0.187382383206 xi_0033_0024
 + 0.383302875585 xi_0033_0025 - 0.750161596334 xi_0033_0026
 - 1.33170117681 xi_0033_0027 + 0.0190658885385 xi_0033_0028
 - 0.745784276999 xi_0033_0029 - 0.516231038044 xi_0033_0030
 - 0.409255825925 xi_0033_0031 - 0.0994375517393 xi_0033_0032
 - 0.734256048841 xi_0033_0033 - 0.253933375138 xi_0033_0034
 - 0.256674950149 xi_0033_0035 - 0.732341101218 xi_0033_0036
 - 0.86707443001 xi_0033_0037 - 0.319117177314 xi_0033_0038
 + 0.0697086420108 xi_0033_0039 >= -9998.75705057
C_0033_loss_le: - 10000 omg_0033 - 0.0111828930987 xi_0033_0000
 + 0.0316585861132 xi_0033_0001 + 0.000106039552982 xi_0033_0002
 + 0.2872356913 xi_0033_0003 + 0.013030358965 xi_0033_0004
 + 0.240120705533 xi_0033_0005 + 0.442580447937 xi_0033_0006
 - 0.375980671537 xi_0033_0007 + 0.392374151169 xi_0033_0008
 + 1.06701819784 xi_0033_0009 - 0.942756746323 xi_0033_0010
 + 0.412027349402 xi_0033_0011 + 0.570359951286 xi_0033_0012
 - 0.852905494999 xi_0033_0013 - 0.323418189169 xi_0033_0014
 + 0.252938924417 xi_0033_0015 - 0.0388599557068 xi_0033_0016
 - 0.020417849004 xi_0033_0017 - 0.119001175529 xi_0033_0018
 + 0.47399163059 xi_0033_0019 - 0.445604107063 xi_0033_0020
 - 0.0184582213876 xi_0033_0021 + 0.307589905785 xi_0033_0022
 + 0.444474821864 xi_0033_0023 - 0.187382383206 xi_0033_0024
 + 0.383302875585 xi_0033_0025 - 0.750161596334 xi_0033_0026
 - 1.33170117681 xi_0033_0027 + 0.0190658885385 xi_0033_0028
 - 0.745784276999 xi_0033_0029 - 0.516231038044 xi_0033_0030
 - 0.409255825925 xi_0033_0031 - 0.0994375517393 xi_0033_0032
 - 0.734256048841 xi_0033_0033 - 0.253933375138 xi_0033_0034
 - 0.256674950149 xi_0033_0035 - 0.732341101218 xi_0033_0036
 - 0.86707443001 xi_0033_0037 - 0.319117177314 xi_0033_0038
 + 0.0697086420108 xi_0033_0039 <= 1.24294941651
C_0034_cost_0001: cost_0034 - 0.0639671434312 pi_0001_0000
 - 0.0315831062354 pi_0001_0001 >= 0
C_0034_cost_0002: cost_0034 - 0.0065960571258 pi_0002_0000
 - 0.00634299487277 pi_0002_0001 - 0.00608988037371 pi_0002_0002
 - 0.00583671383686 pi_0002_0003 - 0.00558349547045 pi_0002_0004
 - 0.00533022548274 pi_0002_0005 - 0.00507690408196 pi_0002_0006
 - 0.00482353147635 pi_0002_0007 - 0.00457010787416 pi_0002_0008
 - 0.00431663348363 pi_0002_0009 - 0.00406310851301 pi_0002_0010
 - 0.00380953317053 pi_0002_0011 - 0.00355590766443 pi_0002_0012
 - 0.00330223220295 pi_0002_0013 - 0.00304850699431 pi_0002_0014
 - 0.00279473224675 pi_0002_0015 - 0.00254090816848 pi_0002_0016
 - 0.00228703496771 pi_0002_0017 - 0.00203311285266 pi_0002_0018
 - 0.00177914203152 pi_0002_0019 - 0.00152512271249 pi_0002_0020
 - 0.00127105510375 pi_0002_0021 - 0.00101693941346 pi_0002_0022
 - 0.0007627758498 pi_0002_0023 - 0.000508564620912 pi_0002_0024
 - 0.000254305934936 pi_0002_0025 >= 0
C_0034_cost_0003: cost_0034 >= 0
C_0034_cost_0004: cost_0034 >= 0
C_0034_cost_0005: cost_0034 >= 0
C_0034_cost_0006: cost_0034 >= 0
C_0034_cost_0007: cost_0034 >= 0
C_0034_cost_0008: cost_0034 >= 0
C_0034_cost_0009: cost_0034 >= 0
C_0034_cost_0010: cost_0034 >= 0
C_0034_cost_0011: cost_0034 >= 0
C_0034_cost_0012: cost_0034 >= 0
C_0034_cost_0013: cost_0034 >= 0
C_0034_cost_0014: cost_0034 >= 0
C_0034_cost_0015: cost_0034 >= 0
C_0034_cost_0016: cost_0034 >= 0
C_0034_cost_0017: cost_0034 >= 0
C_0034_cost_0018: cost_0034 >= 0
C_0034_cost_0019: cost_0034 >= 0
C_0034_cost_0020: cost_0034 >= 0
C_0034_cost_0021: cost_0034 >= 0
C_0034_cost_0022: cost_0034 >= 0
C_0034_cost_0023: cost_0034 >= 0
C_0034_cost_0024: cost_0034 >= 0
C_0034_cost_0025: cost_0034 >= 0
C_0034_cost_0026: cost_0034 - 0.0106666652041 pi_0026_0000 >= 0
C_0034_cost_0027: cost_0034 >= 0
C_0034_cost_0028: cost_0034 >= 0
C_0034_cost_0029: cost_0034 - 0.426666385001 pi_0029_0000 >= 0
C_0034_cost_0030: cost_0034 >= 0
C_0034_cost_0031: cost_0034 >= 0
C_0034_cost_0032: cost_0034 >= 0
C_0034_cost_0033: cost_0034 >= 0
C_0034_cost_0034: cost_0034 >= 0
C_0034_cost_0035: cost_0034 >= 0
C_0034_cost_0036: cost_0034 >= 0
C_0034_linear_0000: - act_0000 + xi_0034_0000 = 25
C_0034_linear_0001: - act_0001 + xi_0034_0001 = 24
C_0034_linear_0002: - act_0002 + xi_0034_0002 = 1355
C_0034_linear_0003: - act_0003 + xi_0034_0003 = 3
C_0034_linear_0004: - act_0004 + xi_0034_0004 = 4
C_0034_linear_0005: - act_0005 + xi_0034_0005 = 1
C_0034_linear_0006: - act_0006 + xi_0034_0006 = 0
C_0034_linear_0007: - act_0007 + xi_0034_0007 = 1
C_0034_linear_0008: - act_0008 + xi_0034_0008 = 1
C_0034_linear_0009: - act_0009 + xi_0034_0009 = 0
C_0034_linear_0010: - act_0010 + xi_0034_0010 = 0
C_0034_linear_0011: - act_0011 + xi_0034_0011 = 0
C_0034_linear_0012: - act_0012 + xi_0034_0012 = 0
C_0034_linear_0013: - act_0013 + xi_0034_0013 = 0
C_0034_linear_0014: - act_0014 + xi_0034_0014 = 1
C_0034_linear_0015: - act_0015 + xi_0034_0015 = 0
C_0034_linear_0016: - act_0016 + xi_0034_0016 = 0
C_0034_linear_0017: - act_0017 + xi_0034_0017 = 0
C_0034_linear_0018: - act_0018 + xi_0034_0018 = 0
C_0034_linear_0019: - act_0019 + xi_0034_0019 = 0
C_0034_linear_0020: - act_0020 + xi_0034_0020 = 0
C_0034_linear_0021: - act_0021 + xi_0034_0021 = 0
C_0034_linear_0022: - act_0022 + xi_0034_0022 = 0
C_0034_linear_0023: - act_0023 + xi_0034_0023 = 1
C_0034_linear_0024: - act_0024 + xi_0034_0024 = 0
C_0034_linear_0025: - act_0025 + xi_0034_0025 = 0
C_0034_linear_0026: - act_0026 + xi_0034_0026 = 0
C_0034_linear_0027: - act_0027 + xi_0034_0027 = 0
C_0034_linear_0028: - act_0028 + xi_0034_0028 = 1
C_0034_linear_0029: - act_0029 + xi_0034_0029 = 0
C_0034_linear_0030: - act_0030 + xi_0034_0030 = 0
C_0034_linear_0031: - act_0031 + xi_0034_0031 = 0
C_0034_linear_0032: - act_0032 + xi_0034_0032 = 1
C_0034_linear_0033: - act_0033 + xi_0034_0033 = 0
C_0034_linear_0034: - act_0034 + xi_0034_0034 = 1
C_0034_linear_0035: - act_0035 + xi_0034_0035 = 0
C_0034_linear_0036: - act_0036 + xi_0034_0036 = 0
C_0034_linear_0037: - act_0037 + xi_0034_0037 = 0
C_0034_linear_0038: - act_0038 + xi_0034_0038 = 0
C_0034_linear_0039: - act_0039 + xi_0034_0039 = 0
C_0034_loss_ge: - 10000 omg_0034 - 0.0111828930987 xi_0034_0000
 + 0.0316585861132 xi_0034_0001 + 0.000106039552982 xi_0034_0002
 + 0.2872356913 xi_0034_0003 + 0.013030358965 xi_0034_0004
 + 0.240120705533 xi_0034_0005 + 0.442580447937 xi_0034_0006
 - 0.375980671537 xi_0034_0007 + 0.392374151169 xi_0034_0008
 + 1.06701819784 xi_0034_0009 - 0.942756746323 xi_0034_0010
 + 0.412027349402 xi_0034_0011 + 0.570359951286 xi_0034_0012
 - 0.852905494999 xi_0034_0013 - 0.323418189169 xi_0034_0014
 + 0.252938924417 xi_0034_0015 - 0.0388599557068 xi_0034_0016
 - 0.020417849004 xi_0034_0017 - 0.119001175529 xi_0034_0018
 + 0.47399163059 xi_0034_0019 - 0.445604107063 xi_0034_0020
 - 0.0184582213876 xi_0034_0021 + 0.307589905785 xi_0034_0022
 + 0.444474821864 xi_0034_0023 - 0.187382383206 xi_0034_0024
 + 0.383302875585 xi_0034_0025 - 0.750161596334 xi_0034_0026
 - 1.33170117681 xi_0034_0027 + 0.0190658885385 xi_0034_0028
 - 0.745784276999 xi_0034_0029 - 0.516231038044 xi_0034_0030
 - 0.409255825925 xi_0034_0031 - 0.0994375517393 xi_0034_0032
 - 0.734256048841 xi_0034_0033 - 0.253933375138 xi_0034_0034
 - 0.256674950149 xi_0034_0035 - 0.732341101218 xi_0034_0036
 - 0.86707443001 xi_0034_0037 - 0.319117177314 xi_0034_0038
 + 0.0697086420108 xi_0034_0039 >= -9998.75705057
C_0034_loss_le: - 10000 omg_0034 - 0.0111828930987 xi_0034_0000
 + 0.0316585861132 xi_0034_0001 + 0.000106039552982 xi_0034_0002
 + 0.2872356913 xi_0034_0003 + 0.013030358965 xi_0034_0004
 + 0.240120705533 xi_0034_0005 + 0.442580447937 xi_0034_0006
 - 0.375980671537 xi_0034_0007 + 0.392374151169 xi_0034_0008
 + 1.06701819784 xi_0034_0009 - 0.942756746323 xi_0034_0010
 + 0.412027349402 xi_0034_0011 + 0.570359951286 xi_0034_0012
 - 0.852905494999 xi_0034_0013 - 0.323418189169 xi_0034_0014
 + 0.252938924417 xi_0034_0015 - 0.0388599557068 xi_0034_0016
 - 0.020417849004 xi_0034_0017 - 0.119001175529 xi_0034_0018
 + 0.47399163059 xi_0034_0019 - 0.445604107063 xi_0034_0020
 - 0.0184582213876 xi_0034_0021 + 0.307589905785 xi_0034_0022
 + 0.444474821864 xi_0034_0023 - 0.187382383206 xi_0034_0024
 + 0.383302875585 xi_0034_0025 - 0.750161596334 xi_0034_0026
 - 1.33170117681 xi_0034_0027 + 0.0190658885385 xi_0034_0028
 - 0.745784276999 xi_0034_0029 - 0.516231038044 xi_0034_0030
 - 0.409255825925 xi_0034_0031 - 0.0994375517393 xi_0034_0032
 - 0.734256048841 xi_0034_0033 - 0.253933375138 xi_0034_0034
 - 0.256674950149 xi_0034_0035 - 0.732341101218 xi_0034_0036
 - 0.86707443001 xi_0034_0037 - 0.319117177314 xi_0034_0038
 + 0.0697086420108 xi_0034_0039 <= 1.24294941651
C_0035_cost_0001: cost_0035 - 0.0480200862104 pi_0001_0000
 - 0.0220147297214 pi_0001_0001 >= 0
C_0035_cost_0002: cost_0035 - 0.00539213825472 pi_0002_0000
 - 0.00518370959423 pi_0002_0001 - 0.00497536399366 pi_0002_0002
 - 0.00476710145842 pi_0002_0003 - 0.00455892199385 pi_0002_0004
 - 0.00435082560516 pi_0002_0005 - 0.00414281229743 pi_0002_0006
 - 0.00393488207565 pi_0002_0007 - 0.00372703494469 pi_0002_0008
 - 0.0035192709093 pi_0002_0009 - 0.00331158997413 pi_0002_0010
 - 0.00310399214371 pi_0002_0011 - 0.00289647742246 pi_0002_0012
 - 0.00268904581469 pi_0002_0013 - 0.00248169732459 pi_0002_0014
 - 0.00227443195626 pi_0002_0015 - 0.00206724971367 pi_0002_0016
 - 0.00186015060069 pi_0002_0017 - 0.00165313462107 pi_0002_0018
 - 0.00144620177846 pi_0002_0019 - 0.0012393520764 pi_0002_0020
 - 0.00103258551831 pi_0002_0021 - 0.000825902107531 pi_0002_0022
 - 0.000619301847258 pi_0002_0023 - 0.000412784740599 pi_0002_0024
 - 0.00020635079055 pi_0002_0025 >= 0
C_0035_cost_0003: cost_0035 >= 0
C_0035_cost_0004: cost_0035 >= 0
C_0035_cost_0005: cost_0035 >= 0
C_0035_cost_0006: cost_0035 >= 0
C_0035_cost_0007: cost_0035 >= 0
C_0035_cost_0008: cost_0035 >= 0
C_0035_cost_0009: cost_0035 >= 0
C_0035_cost_0010: cost_0035 >= 0
C_0035_cost_0011: cost_0035 >= 0
C_0035_cost_0012: cost_0035 >= 0
C_0035_cost_0013: cost_0035 >= 0
C_0035_cost_0014: cost_0035 >= 0
C_0035_cost_0015: cost_0035 >= 0
C_0035_cost_0016: cost_0035 >= 0
C_0035_cost_0017: cost_0035 >= 0
C_0035_cost_0018: cost_0035 >= 0
C_0035_cost_0019: cost_0035 >= 0
C_0035_cost_0020: cost_0035 >= 0
C_0035_cost_0021: cost_0035 >= 0
C_0035_cost_0022: cost_0035 >= 0
C_0035_cost_0023: cost_0035 >= 0
C_0035_cost_0024: cost_0035 >= 0
C_0035_cost_0025: cost_0035 >= 0
C_0035_cost_0026: cost_0035 - 0.0106666652041 pi_0026_0000 >= 0
C_0035_cost_0027: cost_0035 >= 0
C_0035_cost_0028: cost_0035 >= 0
C_0035_cost_0029: cost_0035 - 0.426666385001 pi_0029_0000 >= 0
C_0035_cost_0030: cost_0035 >= 0
C_0035_cost_0031: cost_0035 >= 0
C_0035_cost_0032: cost_0035 >= 0
C_0035_cost_0033: cost_0035 >= 0
C_0035_cost_0034: cost_0035 >= 0
C_0035_cost_0035: cost_0035 >= 0
C_0035_cost_0036: cost_0035 >= 0
C_0035_linear_0000: - act_0000 + xi_0035_0000 = 32
C_0035_linear_0001: - act_0001 + xi_0035_0001 = 27
C_0035_linear_0002: - act_0002 + xi_0035_0002 = 2528
C_0035_linear_0003: - act_0003 + xi_0035_0003 = 4
C_0035_linear_0004: - act_0004 + xi_0035_0004 = 1
C_0035_linear_0005: - act_0005 + xi_0035_0005 = 1
C_0035_linear_0006: - act_0006 + xi_0035_0006 = 1
C_0035_linear_0007: - act_0007 + xi_0035_0007 = 1
C_0035_linear_0008: - act_0008 + xi_0035_0008 = 1
C_0035_linear_0009: - act_0009 + xi_0035_0009 = 0
C_0035_linear_0010: - act_0010 + xi_0035_0010 = 0
C_0035_linear_0011: - act_0011 + xi_0035_0011 = 0
C_0035_linear_0012: - act_0012 + xi_0035_0012 = 0
C_0035_linear_0013: - act_0013 + xi_0035_0013 = 0
C_0035_linear_0014: - act_0014 + xi_0035_0014 = 1
C_0035_linear_0015: - act_0015 + xi_0035_0015 = 0
C_0035_linear_0016: - act_0016 + xi_0035_0016 = 0
C_0035_linear_0017: - act_0017 + xi_0035_0017 = 1
C_0035_linear_0018: - act_0018 + xi_0035_0018 = 1
C_0035_linear_0019: - act_0019 + xi_0035_0019 = 0
C_0035_linear_0020: - act_0020 + xi_0035_0020 = 0
C_0035_linear_0021: - act_0021 + xi_0035_0021 = 0
C_0035_linear_0022: - act_0022 + xi_0035_0022 = 0
C_0035_linear_0023: - act_0023 + xi_0035_0023 = 0
C_0035_linear_0024: - act_0024 + xi_0035_0024 = 0
C_0035_linear_0025: - act_0025 + xi_0035_0025 = 0
C_0035_linear_0026: - act_0026 + xi_0035_0026 = 0
C_0035_linear_0027: - act_0027 + xi_0035_0027 = 0
C_0035_linear_0028: - act_0028 + xi_0035_0028 = 1
C_0035_linear_0029: - act_0029 + xi_0035_0029 = 0
C_0035_linear_0030: - act_0030 + xi_0035_0030 = 0
C_0035_linear_0031: - act_0031 + xi_0035_0031 = 0
C_0035_linear_0032: - act_0032 + xi_0035_0032 = 1
C_0035_linear_0033: - act_0033 + xi_0035_0033 = 0
C_0035_linear_0034: - act_0034 + xi_0035_0034 = 1
C_0035_linear_0035: - act_0035 + xi_0035_0035 = 0
C_0035_linear_0036: - act_0036 + xi_0035_0036 = 0
C_0035_linear_0037: - act_0037 + xi_0035_0037 = 0
C_0035_linear_0038: - act_0038 + xi_0035_0038 = 0
C_0035_linear_0039: - act_0039 + xi_0035_0039 = 0
C_0035_loss_ge: - 10000 omg_0035 - 0.0111828930987 xi_0035_0000
 + 0.0316585861132 xi_0035_0001 + 0.000106039552982 xi_0035_0002
 + 0.2872356913 xi_0035_0003 + 0.013030358965 xi_0035_0004
 + 0.240120705533 xi_0035_0005 + 0.442580447937 xi_0035_0006
 - 0.375980671537 xi_0035_0007 + 0.392374151169 xi_0035_0008
 + 1.06701819784 xi_0035_0009 - 0.942756746323 xi_0035_0010
 + 0.412027349402 xi_0035_0011 + 0.570359951286 xi_0035_0012
 - 0.852905494999 xi_0035_0013 - 0.323418189169 xi_0035_0014
 + 0.252938924417 xi_0035_0015 - 0.0388599557068 xi_0035_0016
 - 0.020417849004 xi_0035_0017 - 0.119001175529 xi_0035_0018
 + 0.47399163059 xi_0035_0019 - 0.445604107063 xi_0035_0020
 - 0.0184582213876 xi_0035_0021 + 0.307589905785 xi_0035_0022
 + 0.444474821864 xi_0035_0023 - 0.187382383206 xi_0035_0024
 + 0.383302875585 xi_0035_0025 - 0.750161596334 xi_0035_0026
 - 1.33170117681 xi_0035_0027 + 0.0190658885385 xi_0035_0028
 - 0.745784276999 xi_0035_0029 - 0.516231038044 xi_0035_0030
 - 0.409255825925 xi_0035_0031 - 0.0994375517393 xi_0035_0032
 - 0.734256048841 xi_0035_0033 - 0.253933375138 xi_0035_0034
 - 0.256674950149 xi_0035_0035 - 0.732341101218 xi_0035_0036
 - 0.86707443001 xi_0035_0037 - 0.319117177314 xi_0035_0038
 + 0.0697086420108 xi_0035_0039 >= -9998.75705057
C_0035_loss_le: - 10000 omg_0035 - 0.0111828930987 xi_0035_0000
 + 0.0316585861132 xi_0035_0001 + 0.000106039552982 xi_0035_0002
 + 0.2872356913 xi_0035_0003 + 0.013030358965 xi_0035_0004
 + 0.240120705533 xi_0035_0005 + 0.442580447937 xi_0035_0006
 - 0.375980671537 xi_0035_0007 + 0.392374151169 xi_0035_0008
 + 1.06701819784 xi_0035_0009 - 0.942756746323 xi_0035_0010
 + 0.412027349402 xi_0035_0011 + 0.570359951286 xi_0035_0012
 - 0.852905494999 xi_0035_0013 - 0.323418189169 xi_0035_0014
 + 0.252938924417 xi_0035_0015 - 0.0388599557068 xi_0035_0016
 - 0.020417849004 xi_0035_0017 - 0.119001175529 xi_0035_0018
 + 0.47399163059 xi_0035_0019 - 0.445604107063 xi_0035_0020
 - 0.0184582213876 xi_0035_0021 + 0.307589905785 xi_0035_0022
 + 0.444474821864 xi_0035_0023 - 0.187382383206 xi_0035_0024
 + 0.383302875585 xi_0035_0025 - 0.750161596334 xi_0035_0026
 - 1.33170117681 xi_0035_0027 + 0.0190658885385 xi_0035_0028
 - 0.745784276999 xi_0035_0029 - 0.516231038044 xi_0035_0030
 - 0.409255825925 xi_0035_0031 - 0.0994375517393 xi_0035_0032
 - 0.734256048841 xi_0035_0033 - 0.253933375138 xi_0035_0034
 - 0.256674950149 xi_0035_0035 - 0.732341101218 xi_0035_0036
 - 0.86707443001 xi_0035_0037 - 0.319117177314 xi_0035_0038
 + 0.0697086420108 xi_0035_0039 <= 1.24294941651
C_0036_cost_0001: cost_0036 - 0.0246929068628 pi_0001_0000
 - 0.0123216428276 pi_0001_0001 >= 0
C_0036_cost_0002: cost_0036 - 0.000915712180001 pi_0002_0000
 - 0.000880355804826 pi_0002_0001 - 0.000845010339311 pi_0002_0002
 - 0.000809675786533 pi_0002_0003 - 0.000774352149568 pi_0002_0004
 - 0.000739039431487 pi_0002_0005 - 0.000703737635354 pi_0002_0006
 - 0.00066844676423 pi_0002_0007 - 0.000633166821169 pi_0002_0008
 - 0.000597897809224 pi_0002_0009 - 0.000562639731439 pi_0002_0010
 - 0.000527392590856 pi_0002_0011 - 0.000492156390511 pi_0002_0012
 - 0.000456931133437 pi_0002_0013 - 0.000421716822659 pi_0002_0014
 - 0.000386513461202 pi_0002_0015 - 0.000351321052082 pi_0002_0016
 - 0.000316139598312 pi_0002_0017 - 0.0002809691029 pi_0002_0018
 - 0.000245809568851 pi_0002_0019 - 0.000210660999163 pi_0002_0020
 - 0.000175523396832 pi_0002_0021 - 0.000140396764846 pi_0002_0022
 - 0.000105281106191 pi_0002_0023 - 7.0176423849e-05 pi_0002_0024
 - 3.50827207946e-05 pi_0002_0025 >= 0
C_0036_cost_0003: cost_0036 >= 0
C_0036_cost_0004: cost_0036 >= 0
C_0036_cost_0005: cost_0036 >= 0
C_0036_cost_0006: cost_0036 >= 0
C_0036_cost_0007: cost_0036 >= 0
C_0036_cost_0008: cost_0036 >= 0
C_0036_cost_0009: cost_0036 >= 0
C_0036_cost_0010: cost_0036 >= 0
C_0036_cost_0011: cost_0036 >= 0
C_0036_cost_0012: cost_0036 >= 0
C_0036_cost_0013: cost_0036 >= 0
C_0036_cost_0014: cost_0036 >= 0
C_0036_cost_0015: cost_0036 >= 0
C_0036_cost_0016: cost_0036 >= 0
C_0036_cost_0017: cost_0036 >= 0
C_0036_cost_0018: cost_0036 >= 0
C_0036_cost_0019: cost_0036 >= 0
C_0036_cost_0020: cost_0036 >= 0
C_0036_cost_0021: cost_0036 >= 0
C_0036_cost_0022: cost_0036 >= 0
C_0036_cost_0023: cost_0036 >= 0
C_0036_cost_0024: cost_0036 >= 0
C_0036_cost_0025: cost_0036 >= 0
C_0036_cost_0026: cost_0036 - 0.0106666652041 pi_0026_0000 >= 0
C_0036_cost_0027: cost_0036 >= 0
C_0036_cost_0028: cost_0036 >= 0
C_0036_cost_0029: cost_0036 - 0.426666385001 pi_0029_0000 >= 0
C_0036_cost_0030: cost_0036 >= 0
C_0036_cost_0031: cost_0036 >= 0
C_0036_cost_0032: cost_0036 >= 0
C_0036_cost_0033: cost_0036 >= 0
C_0036_cost_0034: cost_0036 >= 0
C_0036_cost_0035: cost_0036 >= 0
C_0036_cost_0036: cost_0036 >= 0
C_0036_linear_0000: - act_0000 + xi_0036_0000 = 54
C_0036_linear_0001: - act_0001 + xi_0036_0001 = 36
C_0036_linear_0002: - act_0002 + xi_0036_0002 = 7432
C_0036_linear_0003: - act_0003 + xi_0036_0003 = 2
C_0036_linear_0004: - act_0004 + xi_0036_0004 = 2
C_0036_linear_0005: - act_0005 + xi_0036_0005 = 1
C_0036_linear_0006: - act_0006 + xi_0036_0006 = 0
C_0036_linear_0007: - act_0007 + xi_0036_0007 = 0
C_0036_linear_0008: - act_0008 + xi_0036_0008 = 0
C_0036_linear_0009: - act_0009 + xi_0036_0009 = 0
C_0036_linear_0010: - act_0010 + xi_0036_0010 = 0
C_0036_linear_0011: - act_0011 + xi_0036_0011 = 0
C_0036_linear_0012: - act_0012 + xi_0036_0012 = 0
C_0036_linear_0013: - act_0013 + xi_0036_0013 = 0
C_0036_linear_0014: - act_0014 + xi_0036_0014 = 0
C_0036_linear_0015: - act_0015 + xi_0036_0015 = 1
C_0036_linear_0016: - act_0016 + xi_0036_0016 = 0
C_0036_linear_0017: - act_0017 + xi_0036_0017 = 1
C_0036_linear_0018: - act_0018 + xi_0036_0018 = 0
C_0036_linear_0019: - act_0019 + xi_0036_0019 = 0
C_0036_linear_0020: - act_0020 + xi_0036_0020 = 0
C_0036_linear_0021: - act_0021 + xi_0036_0021 = 0
C_0036_linear_0022: - act_0022 + xi_0036_0022 = 0
C_0036_linear_0023: - act_0023 + xi_0036_0023 = 1
C_0036_linear_0024: - act_0024 + xi_0036_0024 = 0
C_0036_linear_0025: - act_0025 + xi_0036_0025 = 0
C_0036_linear_0026: - act_0026 + xi_0036_0026 = 0
C_0036_linear_0027: - act_0027 + xi_0036_0027 = 0
C_0036_linear_0028: - act_0028 + xi_0036_0028 = 0
C_0036_linear_0029: - act_0029 + xi_0036_0029 = 0
C_0036_linear_0030: - act_0030 + xi_0036_0030 = 1
C_0036_linear_0031: - act_0031 + xi_0036_0031 = 0
C_0036_linear_0032: - act_0032 + xi_0036_0032 = 1
C_0036_linear_0033: - act_0033 + xi_0036_0033 = 0
C_0036_linear_0034: - act_0034 + xi_0036_0034 = 1
C_0036_linear_0035: - act_0035 + xi_0036_0035 = 0
C_0036_linear_0036: - act_0036 + xi_0036_0036 = 0
C_0036_linear_0037: - act_0037 + xi_0036_0037 = 0
C_0036_linear_0038: - act_0038 + xi_0036_0038 = 0
C_0036_linear_0039: - act_0039 + xi_0036_0039 = 0
C_0036_loss_ge: - 10000 omg_0036 - 0.0111828930987 xi_0036_0000
 + 0.0316585861132 xi_0036_0001 + 0.000106039552982 xi_0036_0002
 + 0.2872356913 xi_0036_0003 + 0.013030358965 xi_0036_0004
 + 0.240120705533 xi_0036_0005 + 0.442580447937 xi_0036_0006
 - 0.375980671537 xi_0036_0007 + 0.392374151169 xi_0036_0008
 + 1.06701819784 xi_0036_0009 - 0.942756746323 xi_0036_0010
 + 0.412027349402 xi_0036_0011 + 0.570359951286 xi_0036_0012
 - 0.852905494999 xi_0036_0013 - 0.323418189169 xi_0036_0014
 + 0.252938924417 xi_0036_0015 - 0.0388599557068 xi_0036_0016
 - 0.020417849004 xi_0036_0017 - 0.119001175529 xi_0036_0018
 + 0.47399163059 xi_0036_0019 - 0.445604107063 xi_0036_0020
 - 0.0184582213876 xi_0036_0021 + 0.307589905785 xi_0036_0022
 + 0.444474821864 xi_0036_0023 - 0.187382383206 xi_0036_0024
 + 0.383302875585 xi_0036_0025 - 0.750161596334 xi_0036_0026
 - 1.33170117681 xi_0036_0027 + 0.0190658885385 xi_0036_0028
 - 0.745784276999 xi_0036_0029 - 0.516231038044 xi_0036_0030
 - 0.409255825925 xi_0036_0031 - 0.0994375517393 xi_0036_0032
 - 0.734256048841 xi_0036_0033 - 0.253933375138 xi_0036_0034
 - 0.256674950149 xi_0036_0035 - 0.732341101218 xi_0036_0036
 - 0.86707443001 xi_0036_0037 - 0.319117177314 xi_0036_0038
 + 0.0697086420108 xi_0036_0039 >= -9998.75705057
C_0036_loss_le: - 10000 omg_0036 - 0.0111828930987 xi_0036_0000
 + 0.0316585861132 xi_0036_0001 + 0.000106039552982 xi_0036_0002
 + 0.2872356913 xi_0036_0003 + 0.013030358965 xi_0036_0004
 + 0.240120705533 xi_0036_0005 + 0.442580447937 xi_0036_0006
 - 0.375980671537 xi_0036_0007 + 0.392374151169 xi_0036_0008
 + 1.06701819784 xi_0036_0009 - 0.942756746323 xi_0036_0010
 + 0.412027349402 xi_0036_0011 + 0.570359951286 xi_0036_0012
 - 0.852905494999 xi_0036_0013 - 0.323418189169 xi_0036_0014
 + 0.252938924417 xi_0036_0015 - 0.0388599557068 xi_0036_0016
 - 0.020417849004 xi_0036_0017 - 0.119001175529 xi_0036_0018
 + 0.47399163059 xi_0036_0019 - 0.445604107063 xi_0036_0020
 - 0.0184582213876 xi_0036_0021 + 0.307589905785 xi_0036_0022
 + 0.444474821864 xi_0036_0023 - 0.187382383206 xi_0036_0024
 + 0.383302875585 xi_0036_0025 - 0.750161596334 xi_0036_0026
 - 1.33170117681 xi_0036_0027 + 0.0190658885385 xi_0036_0028
 - 0.745784276999 xi_0036_0029 - 0.516231038044 xi_0036_0030
 - 0.409255825925 xi_0036_0031 - 0.0994375517393 xi_0036_0032
 - 0.734256048841 xi_0036_0033 - 0.253933375138 xi_0036_0034
 - 0.256674950149 xi_0036_0035 - 0.732341101218 xi_0036_0036
 - 0.86707443001 xi_0036_0037 - 0.319117177314 xi_0036_0038
 + 0.0697086420108 xi_0036_0039 <= 1.24294941651
C_0037_cost_0001: cost_0037 - 0.0246929068628 pi_0001_0000
 - 0.0123216428276 pi_0001_0001 >= 0
C_0037_cost_0002: cost_0037 - 0.00310168880294 pi_0002_0000
 - 0.00298160235906 pi_0002_0001 - 0.00286157931944 pi_0002_0002
 - 0.00274161966575 pi_0002_0003 - 0.00262172337969 pi_0002_0004
 - 0.00250189044292 pi_0002_0005 - 0.00238212083712 pi_0002_0006
 - 0.00226241454398 pi_0002_0007 - 0.00214277154516 pi_0002_0008
 - 0.00202319182234 pi_0002_0009 - 0.00190367535719 pi_0002_0010
 - 0.0017842221314 pi_0002_0011 - 0.00166483212662 pi_0002_0012
 - 0.00154550532453 pi_0002_0013 - 0.0014262417068 pi_0002_0014
 - 0.00130704125509 pi_0002_0015 - 0.00118790395109 pi_0002_0016
 - 0.00106882977644 pi_0002_0017 - 0.000949818712813 pi_0002_0018
 - 0.000830870741877 pi_0002_0019 - 0.000711985845291 pi_0002_0020
 - 0.000593164004715 pi_0002_0021 - 0.000474405201808 pi_0002_0022
 - 0.000355709418228 pi_0002_0023 - 0.00023707663563 pi_0002_0024
 - 0.00011850683567 pi_0002_0025 >= 0
C_0037_cost_0003: cost_0037 >= 0
C_0037_cost_0004: cost_0037 >= 0
C_0037_cost_0005: cost_0037 >= 0
C_0037_cost_0006: cost_0037 >= 0
C_0037_cost_0007: cost_0037 >= 0
C_0037_cost_0008: cost_0037 >= 0
C_0037_cost_0009: cost_0037 >= 0
C_0037_cost_0010: cost_0037 >= 0
C_0037_cost_0011: cost_0037 >= 0
C_0037_cost_0012: cost_0037 >= 0
C_0037_cost_0013: cost_0037 >= 0
C_0037_cost_0014: cost_0037 >= 0
C_0037_cost_0015: cost_0037 >= 0
C_0037_cost_0016: cost_0037 >= 0
C_0037_cost_0017: cost_0037 >= 0
C_0037_cost_0018: cost_0037 >= 0
C_0037_cost_0019: cost_0037 >= 0
C_0037_cost_0020: cost_0037 >= 0
C_0037_cost_0021: cost_0037 >= 0
C_0037_cost_0022: cost_0037 >= 0
C_0037_cost_0023: cost_0037 >= 0
C_0037_cost_0024: cost_0037 >= 0
C_0037_cost_0025: cost_0037 >= 0
C_0037_cost_0026: cost_0037 - 0.0106666652041 pi_0026_0000 >= 0
C_0037_cost_0027: cost_0037 >= 0
C_0037_cost_0028: cost_0037 >= 0
C_0037_cost_0029: cost_0037 - 0.426666385001 pi_0029_0000 >= 0
C_0037_cost_0030: cost_0037 >= 0
C_0037_cost_0031: cost_0037 >= 0
C_0037_cost_0032: cost_0037 >= 0
C_0037_cost_0033: cost_0037 >= 0
C_0037_cost_0034: cost_0037 >= 0
C_0037_cost_0035: cost_0037 >= 0
C_0037_cost_0036: cost_0037 >= 0
C_0037_linear_0000: - act_0000 + xi_0037_0000 = 27
C_0037_linear_0001: - act_0001 + xi_0037_0001 = 36
C_0037_linear_0002: - act_0002 + xi_0037_0002 = 3711
C_0037_linear_0003: - act_0003 + xi_0037_0003 = 2
C_0037_linear_0004: - act_0004 + xi_0037_0004 = 2
C_0037_linear_0005: - act_0005 + xi_0037_0005 = 1
C_0037_linear_0006: - act_0006 + xi_0037_0006 = 0
C_0037_linear_0007: - act_0007 + xi_0037_0007 = 0
C_0037_linear_0008: - act_0008 + xi_0037_0008 = 1
C_0037_linear_0009: - act_0009 + xi_0037_0009 = 0
C_0037_linear_0010: - act_0010 + xi_0037_0010 = 0
C_0037_linear_0011: - act_0011 + xi_0037_0011 = 0
C_0037_linear_0012: - act_0012 + xi_0037_0012 = 0
C_0037_linear_0013: - act_0013 + xi_0037_0013 = 0
C_0037_linear_0014: - act_0014 + xi_0037_0014 = 1
C_0037_linear_0015: - act_0015 + xi_0037_0015 = 0
C_0037_linear_0016: - act_0016 + xi_0037_0016 = 0
C_0037_linear_0017: - act_0017 + xi_0037_0017 = 1
C_0037_linear_0018: - act_0018 + xi_0037_0018 = 0
C_0037_linear_0019: - act_0019 + xi_0037_0019 = 1
C_0037_linear_0020: - act_0020 + xi_0037_0020 = 0
C_0037_linear_0021: - act_0021 + xi_0037_0021 = 0
C_0037_linear_0022: - act_0022 + xi_0037_0022 = 0
C_0037_linear_0023: - act_0023 + xi_0037_0023 = 0
C_0037_linear_0024: - act_0024 + xi_0037_0024 = 0
C_0037_linear_0025: - act_0025 + xi_0037_0025 = 0
C_0037_linear_0026: - act_0026 + xi_0037_0026 = 0
C_0037_linear_0027: - act_0027 + xi_0037_0027 = 0
C_0037_linear_0028: - act_0028 + xi_0037_0028 = 0
C_0037_linear_0029: - act_0029 + xi_0037_0029 = 0
C_0037_linear_0030: - act_0030 + xi_0037_0030 = 1
C_0037_linear_0031: - act_0031 + xi_0037_0031 = 0
C_0037_linear_0032: - act_0032 + xi_0037_0032 = 1
C_0037_linear_0033: - act_0033 + xi_0037_0033 = 0
C_0037_linear_0034: - act_0034 + xi_0037_0034 = 1
C_0037_linear_0035: - act_0035 + xi_0037_0035 = 0
C_0037_linear_0036: - act_0036 + xi_0037_0036 = 0
C_0037_linear_0037: - act_0037 + xi_0037_0037 = 0
C_0037_linear_0038: - act_0038 + xi_0037_0038 = 0
C_0037_linear_0039: - act_0039 + xi_0037_0039 = 1
C_0037_loss_ge: - 10000 omg_0037 - 0.0111828930987 xi_0037_0000
 + 0.0316585861132 xi_0037_0001 + 0.000106039552982 xi_0037_0002
 + 0.2872356913 xi_0037_0003 + 0.013030358965 xi_0037_0004
 + 0.240120705533 xi_0037_0005 + 0.442580447937 xi_0037_0006
 - 0.375980671537 xi_0037_0007 + 0.392374151169 xi_0037_0008
 + 1.06701819784 xi_0037_0009 - 0.942756746323 xi_0037_0010
 + 0.412027349402 xi_0037_0011 + 0.570359951286 xi_0037_0012
 - 0.852905494999 xi_0037_0013 - 0.323418189169 xi_0037_0014
 + 0.252938924417 xi_0037_0015 - 0.0388599557068 xi_0037_0016
 - 0.020417849004 xi_0037_0017 - 0.119001175529 xi_0037_0018
 + 0.47399163059 xi_0037_0019 - 0.445604107063 xi_0037_0020
 - 0.0184582213876 xi_0037_0021 + 0.307589905785 xi_0037_0022
 + 0.444474821864 xi_0037_0023 - 0.187382383206 xi_0037_0024
 + 0.383302875585 xi_0037_0025 - 0.750161596334 xi_0037_0026
 - 1.33170117681 xi_0037_0027 + 0.0190658885385 xi_0037_0028
 - 0.745784276999 xi_0037_0029 - 0.516231038044 xi_0037_0030
 - 0.409255825925 xi_0037_0031 - 0.0994375517393 xi_0037_0032
 - 0.734256048841 xi_0037_0033 - 0.253933375138 xi_0037_0034
 - 0.256674950149 xi_0037_0035 - 0.732341101218 xi_0037_0036
 - 0.86707443001 xi_0037_0037 - 0.319117177314 xi_0037_0038
 + 0.0697086420108 xi_0037_0039 >= -9998.75705057
C_0037_loss_le: - 10000 omg_0037 - 0.0111828930987 xi_0037_0000
 + 0.0316585861132 xi_0037_0001 + 0.000106039552982 xi_0037_0002
 + 0.2872356913 xi_0037_0003 + 0.013030358965 xi_0037_0004
 + 0.240120705533 xi_0037_0005 + 0.442580447937 xi_0037_0006
 - 0.375980671537 xi_0037_0007 + 0.392374151169 xi_0037_0008
 + 1.06701819784 xi_0037_0009 - 0.942756746323 xi_0037_0010
 + 0.412027349402 xi_0037_0011 + 0.570359951286 xi_0037_0012
 - 0.852905494999 xi_0037_0013 - 0.323418189169 xi_0037_0014
 + 0.252938924417 xi_0037_0015 - 0.0388599557068 xi_0037_0016
 - 0.020417849004 xi_0037_0017 - 0.119001175529 xi_0037_0018
 + 0.47399163059 xi_0037_0019 - 0.445604107063 xi_0037_0020
 - 0.0184582213876 xi_0037_0021 + 0.307589905785 xi_0037_0022
 + 0.444474821864 xi_0037_0023 - 0.187382383206 xi_0037_0024
 + 0.383302875585 xi_0037_0025 - 0.750161596334 xi_0037_0026
 - 1.33170117681 xi_0037_0027 + 0.0190658885385 xi_0037_0028
 - 0.745784276999 xi_0037_0029 - 0.516231038044 xi_0037_0030
 - 0.409255825925 xi_0037_0031 - 0.0994375517393 xi_0037_0032
 - 0.734256048841 xi_0037_0033 - 0.253933375138 xi_0037_0034
 - 0.256674950149 xi_0037_0035 - 0.732341101218 xi_0037_0036
 - 0.86707443001 xi_0037_0037 - 0.319117177314 xi_0037_0038
 + 0.0697086420108 xi_0037_0039 <= 1.24294941651
C_0038_cost_0001: cost_0038 - 0.0639671434312 pi_0001_0000
 - 0.0315831062354 pi_0001_0001 >= 0
C_0038_cost_0002: cost_0038 - 0.00642299889324 pi_0002_0000
 - 0.00617687461969 pi_0002_0001 - 0.00593067558268 pi_0002_0002
 - 0.00568440198572 pi_0002_0003 - 0.00543805403242 pi_0002_0004
 - 0.00519163192648 pi_0002_0005 - 0.00494513587164 pi_0002_0006
 - 0.00469856607177 pi_0002_0007 - 0.00445192273078 pi_0002_0008
 - 0.00420520605269 pi_0002_0009 - 0.00395841624158 pi_0002_0010
 - 0.00371155350161 pi_0002_0011 - 0.00346461803703 pi_0002_0012
 - 0.00321761005215 pi_0002_0013 - 0.00297052975137 pi_0002_0014
 - 0.00272337733914 pi_0002_0015 - 0.00247615302002 pi_0002_0016
 - 0.00222885699861 pi_0002_0017 - 0.00198148947961 pi_0002_0018
 - 0.00173405066777 pi_0002_0019 - 0.00148654076793 pi_0002_0020
 - 0.00123895998497 pi_0002_0021 - 0.000991308523887 pi_0002_0022
 - 0.000743586589705 pi_0002_0023 - 0.000495794387536 pi_0002_0024
 - 0.000247932122553 pi_0002_0025 >= 0
C_0038_cost_0003: cost_0038 >= 0
C_0038_cost_0004: cost_0038 >= 0
C_0038_cost_0005: cost_0038 >= 0
C_0038_cost_0006: cost_0038 >= 0
C_0038_cost_0007: cost_0038 >= 0
C_0038_cost_0008: cost_0038 >= 0
C_0038_cost_0009: cost_0038 >= 0
C_0038_cost_0010: cost_0038 >= 0
C_0038_cost_0011: cost_0038 >= 0
C_0038_cost_0012: cost_0038 >= 0
C_0038_cost_0013: cost_0038 >= 0
C_0038_cost_0014: cost_0038 >= 0
C_0038_cost_0015: cost_0038 >= 0
C_0038_cost_0016: cost_0038 >= 0
C_0038_cost_0017: cost_0038 >= 0
C_0038_cost_0018: cost_0038 >= 0
C_0038_cost_0019: cost_0038 >= 0
C_0038_cost_0020: cost_0038 >= 0
C_0038_cost_0021: cost_0038 >= 0
C_0038_cost_0022: cost_0038 >= 0
C_0038_cost_0023: cost_0038 >= 0
C_0038_cost_0024: cost_0038 >= 0
C_0038_cost_0025: cost_0038 >= 0
C_0038_cost_0026: cost_0038 - 0.0106666652041 pi_0026_0000 >= 0
C_0038_cost_0027: cost_0038 >= 0
C_0038_cost_0028: cost_0038 >= 0
C_0038_cost_0029: cost_0038 - 0.426666385001 pi_0029_0000 >= 0
C_0038_cost_0030: cost_0038 >= 0
C_0038_cost_0031: cost_0038 >= 0
C_0038_cost_0032: cost_0038 >= 0
C_0038_cost_0033: cost_0038 >= 0
C_0038_cost_0034: cost_0038 >= 0
C_0038_cost_0035: cost_0038 >= 0
C_0038_cost_0036: cost_0038 >= 0
C_0038_linear_0000: - act_0000 + xi_0038_0000 = 23
C_0038_linear_0001: - act_0001 + xi_0038_0001 = 24
C_0038_linear_0002: - act_0002 + xi_0038_0002 = 1246
C_0038_linear_0003: - act_0003 + xi_0038_0003 = 4
C_0038_linear_0004: - act_0004 + xi_0038_0004 = 2
C_0038_linear_0005: - act_0005 + xi_0038_0005 = 1
C_0038_linear_0006: - act_0006 + xi_0038_0006 = 0
C_0038_linear_0007: - act_0007 + xi_0038_0007 = 0
C_0038_linear_0008: - act_0008 + xi_0038_0008 = 1
C_0038_linear_0009: - act_0009 + xi_0038_0009 = 0
C_0038_linear_0010: - act_0010 + xi_0038_0010 = 0
C_0038_linear_0011: - act_0011 + xi_0038_0011 = 0
C_0038_linear_0012: - act_0012 + xi_0038_0012 = 0
C_0038_linear_0013: - act_0013 + xi_0038_0013 = 0
C_0038_linear_0014: - act_0014 + xi_0038_0014 = 1
C_0038_linear_0015: - act_0015 + xi_0038_0015 = 0
C_0038_linear_0016: - act_0016 + xi_0038_0016 = 0
C_0038_linear_0017: - act_0017 + xi_0038_0017 = 0
C_0038_linear_0018: - act_0018 + xi_0038_0018 = 0
C_0038_linear_0019: - act_0019 + xi_0038_0019 = 0
C_0038_linear_0020: - act_0020 + xi_0038_0020 = 0
C_0038_linear_0021: - act_0021 + xi_0038_0021 = 0
C_0038_linear_0022: - act_0022 + xi_0038_0022 = 0
C_0038_linear_0023: - act_0023 + xi_0038_0023 = 1
C_0038_linear_0024: - act_0024 + xi_0038_0024 = 0
C_0038_linear_0025: - act_0025 + xi_0038_0025 = 0
C_0038_linear_0026: - act_0026 + xi_0038_0026 = 0
C_0038_linear_0027: - act_0027 + xi_0038_0027 = 0
C_0038_linear_0028: - act_0028 + xi_0038_0028 = 1
C_0038_linear_0029: - act_0029 + xi_0038_0029 = 0
C_0038_linear_0030: - act_0030 + xi_0038_0030 = 0
C_0038_linear_0031: - act_0031 + xi_0038_0031 = 0
C_0038_linear_0032: - act_0032 + xi_0038_0032 = 1
C_0038_linear_0033: - act_0033 + xi_0038_0033 = 0
C_0038_linear_0034: - act_0034 + xi_0038_0034 = 1
C_0038_linear_0035: - act_0035 + xi_0038_0035 = 0
C_0038_linear_0036: - act_0036 + xi_0038_0036 = 0
C_0038_linear_0037: - act_0037 + xi_0038_0037 = 0
C_0038_linear_0038: - act_0038 + xi_0038_0038 = 1
C_0038_linear_0039: - act_0039 + xi_0038_0039 = 1
C_0038_loss_ge: - 10000 omg_0038 - 0.0111828930987 xi_0038_0000
 + 0.0316585861132 xi_0038_0001 + 0.000106039552982 xi_0038_0002
 + 0.2872356913 xi_0038_0003 + 0.013030358965 xi_0038_0004
 + 0.240120705533 xi_0038_0005 + 0.442580447937 xi_0038_0006
 - 0.375980671537 xi_0038_0007 + 0.392374151169 xi_0038_0008
 + 1.06701819784 xi_0038_0009 - 0.942756746323 xi_0038_0010
 + 0.412027349402 xi_0038_0011 + 0.570359951286 xi_0038_0012
 - 0.852905494999 xi_0038_0013 - 0.323418189169 xi_0038_0014
 + 0.252938924417 xi_0038_0015 - 0.0388599557068 xi_0038_0016
 - 0.020417849004 xi_0038_0017 - 0.119001175529 xi_0038_0018
 + 0.47399163059 xi_0038_0019 - 0.445604107063 xi_0038_0020
 - 0.0184582213876 xi_0038_0021 + 0.307589905785 xi_0038_0022
 + 0.444474821864 xi_0038_0023 - 0.187382383206 xi_0038_0024
 + 0.383302875585 xi_0038_0025 - 0.750161596334 xi_0038_0026
 - 1.33170117681 xi_0038_0027 + 0.0190658885385 xi_0038_0028
 - 0.745784276999 xi_0038_0029 - 0.516231038044 xi_0038_0030
 - 0.409255825925 xi_0038_0031 - 0.0994375517393 xi_0038_0032
 - 0.734256048841 xi_0038_0033 - 0.253933375138 xi_0038_0034
 - 0.256674950149 xi_0038_0035 - 0.732341101218 xi_0038_0036
 - 0.86707443001 xi_0038_0037 - 0.319117177314 xi_0038_0038
 + 0.0697086420108 xi_0038_0039 >= -9998.75705057
C_0038_loss_le: - 10000 omg_0038 - 0.0111828930987 xi_0038_0000
 + 0.0316585861132 xi_0038_0001 + 0.000106039552982 xi_0038_0002
 + 0.2872356913 xi_0038_0003 + 0.013030358965 xi_0038_0004
 + 0.240120705533 xi_0038_0005 + 0.442580447937 xi_0038_0006
 - 0.375980671537 xi_0038_0007 + 0.392374151169 xi_0038_0008
 + 1.06701819784 xi_0038_0009 - 0.942756746323 xi_0038_0010
 + 0.412027349402 xi_0038_0011 + 0.570359951286 xi_0038_0012
 - 0.852905494999 xi_0038_0013 - 0.323418189169 xi_0038_0014
 + 0.252938924417 xi_0038_0015 - 0.0388599557068 xi_0038_0016
 - 0.020417849004 xi_0038_0017 - 0.119001175529 xi_0038_0018
 + 0.47399163059 xi_0038_0019 - 0.445604107063 xi_0038_0020
 - 0.0184582213876 xi_0038_0021 + 0.307589905785 xi_0038_0022
 + 0.444474821864 xi_0038_0023 - 0.187382383206 xi_0038_0024
 + 0.383302875585 xi_0038_0025 - 0.750161596334 xi_0038_0026
 - 1.33170117681 xi_0038_0027 + 0.0190658885385 xi_0038_0028
 - 0.745784276999 xi_0038_0029 - 0.516231038044 xi_0038_0030
 - 0.409255825925 xi_0038_0031 - 0.0994375517393 xi_0038_0032
 - 0.734256048841 xi_0038_0033 - 0.253933375138 xi_0038_0034
 - 0.256674950149 xi_0038_0035 - 0.732341101218 xi_0038_0036
 - 0.86707443001 xi_0038_0037 - 0.319117177314 xi_0038_0038
 + 0.0697086420108 xi_0038_0039 <= 1.24294941651
C_0039_cost_0001: cost_0039 - 0.0246929068628 pi_0001_0000
 - 0.0123216428276 pi_0001_0001 >= 0
C_0039_cost_0002: cost_0039 - 0.0052083433532 pi_0002_0000
 - 0.00500698352701 pi_0002_0001 - 0.00480570684481 pi_0002_0002
 - 0.00460451330337 pi_0002_0003 - 0.00440340289941 pi_0002_0004
 - 0.00420237562953 pi_0002_0005 - 0.00400143149025 pi_0002_0006
 - 0.00380057047801 pi_0002_0007 - 0.00359979258915 pi_0002_0008
 - 0.00339909781993 pi_0002_0009 - 0.00319848616652 pi_0002_0010
 - 0.002997957625 pi_0002_0011 - 0.00279751219136 pi_0002_0012
 - 0.00259714986151 pi_0002_0013 - 0.00239687063128 pi_0002_0014
 - 0.0021966744964 pi_0002_0015 - 0.00199656145251 pi_0002_0016
 - 0.00179653149517 pi_0002_0017 - 0.00159658461988 pi_0002_0018
 - 0.00139672082201 pi_0002_0019 - 0.00119694009687 pi_0002_0020
 - 0.000997242439694 pi_0002_0021 - 0.000797627845607 pi_0002_0022
 - 0.000598096309666 pi_0002_0023 - 0.000398647826842 pi_0002_0024
 - 0.000199282392019 pi_0002_0025 >= 0
C_0039_cost_0003: cost_0039 >= 0
C_0039_cost_0004: cost_0039 >= 0
C_0039_cost_0005: cost_0039 >= 0
C_0039_cost_0006: cost_0039 >= 0
C_0039_cost_0007: cost_0039 >= 0
C_0039_cost_0008: cost_0039 >= 0
C_0039_cost_0009: cost_0039 >= 0
C_0039_cost_0010: cost_0039 >= 0
C_0039_cost_0011: cost_0039 >= 0
C_0039_cost_0012: cost_0039 >= 0
C_0039_cost_0013: cost_0039 >= 0
C_0039_cost_0014: cost_0039 >= 0
C_0039_cost_0015: cost_0039 >= 0
C_0039_cost_0016: cost_0039 >= 0
C_0039_cost_0017: cost_0039 >= 0
C_0039_cost_0018: cost_0039 >= 0
C_0039_cost_0019: cost_0039 >= 0
C_0039_cost_0020: cost_0039 >= 0
C_0039_cost_0021: cost_0039 >= 0
C_0039_cost_0022: cost_0039 >= 0
C_0039_cost_0023: cost_0039 >= 0
C_0039_cost_0024: cost_0039 >= 0
C_0039_cost_0025: cost_0039 >= 0
C_0039_cost_0026: cost_0039 - 0.0106666652041 pi_0026_0000 >= 0
C_0039_cost_0027: cost_0039 >= 0
C_0039_cost_0028: cost_0039 >= 0
C_0039_cost_0029: cost_0039 - 0.426666385001 pi_0029_0000 >= 0
C_0039_cost_0030: cost_0039 >= 0
C_0039_cost_0031: cost_0039 >= 0
C_0039_cost_0032: cost_0039 >= 0
C_0039_cost_0033: cost_0039 >= 0
C_0039_cost_0034: cost_0039 >= 0
C_0039_cost_0035: cost_0039 >= 0
C_0039_cost_0036: cost_0039 >= 0
C_0039_linear_0000: - act_0000 + xi_0039_0000 = 27
C_0039_linear_0001: - act_0001 + xi_0039_0001 = 36
C_0039_linear_0002: - act_0002 + xi_0039_0002 = 2613
C_0039_linear_0003: - act_0003 + xi_0039_0003 = 4
C_0039_linear_0004: - act_0004 + xi_0039_0004 = 2
C_0039_linear_0005: - act_0005 + xi_0039_0005 = 2
C_0039_linear_0006: - act_0006 + xi_0039_0006 = 0
C_0039_linear_0007: - act_0007 + xi_0039_0007 = 0
C_0039_linear_0008: - act_0008 + xi_0039_0008 = 1
C_0039_linear_0009: - act_0009 + xi_0039_0009 = 0
C_0039_linear_0010: - act_0010 + xi_0039_0010 = 0
C_0039_linear_0011: - act_0011 + xi_0039_0011 = 0
C_0039_linear_0012: - act_0012 + xi_0039_0012 = 0
C_0039_linear_0013: - act_0013 + xi_0039_0013 = 0
C_0039_linear_0014: - act_0014 + xi_0039_0014 = 1
C_0039_linear_0015: - act_0015 + xi_0039_0015 = 0
C_0039_linear_0016: - act_0016 + xi_0039_0016 = 0
C_0039_linear_0017: - act_0017 + xi_0039_0017 = 1
C_0039_linear_0018: - act_0018 + xi_0039_0018 = 0
C_0039_linear_0019: - act_0019 + xi_0039_0019 = 0
C_0039_linear_0020: - act_0020 + xi_0039_0020 = 0
C_0039_linear_0021: - act_0021 + xi_0039_0021 = 0
C_0039_linear_0022: - act_0022 + xi_0039_0022 = 0
C_0039_linear_0023: - act_0023 + xi_0039_0023 = 0
C_0039_linear_0024: - act_0024 + xi_0039_0024 = 0
C_0039_linear_0025: - act_0025 + xi_0039_0025 = 1
C_0039_linear_0026: - act_0026 + xi_0039_0026 = 0
C_0039_linear_0027: - act_0027 + xi_0039_0027 = 0
C_0039_linear_0028: - act_0028 + xi_0039_0028 = 0
C_0039_linear_0029: - act_0029 + xi_0039_0029 = 0
C_0039_linear_0030: - act_0030 + xi_0039_0030 = 1
C_0039_linear_0031: - act_0031 + xi_0039_0031 = 1
C_0039_linear_0032: - act_0032 + xi_0039_0032 = 0
C_0039_linear_0033: - act_0033 + xi_0039_0033 = 0
C_0039_linear_0034: - act_0034 + xi_0039_0034 = 1
C_0039_linear_0035: - act_0035 + xi_0039_0035 = 0
C_0039_linear_0036: - act_0036 + xi_0039_0036 = 0
C_0039_linear_0037: - act_0037 + xi_0039_0037 = 0
C_0039_linear_0038: - act_0038 + xi_0039_0038 = 1
C_0039_linear_0039: - act_0039 + xi_0039_0039 = 1
C_0039_loss_ge: - 10000 omg_0039 - 0.0111828930987 xi_0039_0000
 + 0.0316585861132 xi_0039_0001 + 0.000106039552982 xi_0039_0002
 + 0.2872356913 xi_0039_0003 + 0.013030358965 xi_0039_0004
 + 0.240120705533 xi_0039_0005 + 0.442580447937 xi_0039_0006
 - 0.375980671537 xi_0039_0007 + 0.392374151169 xi_0039_0008
 + 1.06701819784 xi_0039_0009 - 0.942756746323 xi_0039_0010
 + 0.412027349402 xi_0039_0011 + 0.570359951286 xi_0039_0012
 - 0.852905494999 xi_0039_0013 - 0.323418189169 xi_0039_0014
 + 0.252938924417 xi_0039_0015 - 0.0388599557068 xi_0039_0016
 - 0.020417849004 xi_0039_0017 - 0.119001175529 xi_0039_0018
 + 0.47399163059 xi_0039_0019 - 0.445604107063 xi_0039_0020
 - 0.0184582213876 xi_0039_0021 + 0.307589905785 xi_0039_0022
 + 0.444474821864 xi_0039_0023 - 0.187382383206 xi_0039_0024
 + 0.383302875585 xi_0039_0025 - 0.750161596334 xi_0039_0026
 - 1.33170117681 xi_0039_0027 + 0.0190658885385 xi_0039_0028
 - 0.745784276999 xi_0039_0029 - 0.516231038044 xi_0039_0030
 - 0.409255825925 xi_0039_0031 - 0.0994375517393 xi_0039_0032
 - 0.734256048841 xi_0039_0033 - 0.253933375138 xi_0039_0034
 - 0.256674950149 xi_0039_0035 - 0.732341101218 xi_0039_0036
 - 0.86707443001 xi_0039_0037 - 0.319117177314 xi_0039_0038
 + 0.0697086420108 xi_0039_0039 >= -9998.75705057
C_0039_loss_le: - 10000 omg_0039 - 0.0111828930987 xi_0039_0000
 + 0.0316585861132 xi_0039_0001 + 0.000106039552982 xi_0039_0002
 + 0.2872356913 xi_0039_0003 + 0.013030358965 xi_0039_0004
 + 0.240120705533 xi_0039_0005 + 0.442580447937 xi_0039_0006
 - 0.375980671537 xi_0039_0007 + 0.392374151169 xi_0039_0008
 + 1.06701819784 xi_0039_0009 - 0.942756746323 xi_0039_0010
 + 0.412027349402 xi_0039_0011 + 0.570359951286 xi_0039_0012
 - 0.852905494999 xi_0039_0013 - 0.323418189169 xi_0039_0014
 + 0.252938924417 xi_0039_0015 - 0.0388599557068 xi_0039_0016
 - 0.020417849004 xi_0039_0017 - 0.119001175529 xi_0039_0018
 + 0.47399163059 xi_0039_0019 - 0.445604107063 xi_0039_0020
 - 0.0184582213876 xi_0039_0021 + 0.307589905785 xi_0039_0022
 + 0.444474821864 xi_0039_0023 - 0.187382383206 xi_0039_0024
 + 0.383302875585 xi_0039_0025 - 0.750161596334 xi_0039_0026
 - 1.33170117681 xi_0039_0027 + 0.0190658885385 xi_0039_0028
 - 0.745784276999 xi_0039_0029 - 0.516231038044 xi_0039_0030
 - 0.409255825925 xi_0039_0031 - 0.0994375517393 xi_0039_0032
 - 0.734256048841 xi_0039_0033 - 0.253933375138 xi_0039_0034
 - 0.256674950149 xi_0039_0035 - 0.732341101218 xi_0039_0036
 - 0.86707443001 xi_0039_0037 - 0.319117177314 xi_0039_0038
 + 0.0697086420108 xi_0039_0039 <= 1.24294941651
C_0040_cost_0001: cost_0040 - 0.0653909198978 pi_0001_0000
 - 0.0317669758175 pi_0001_0001 >= 0
C_0040_cost_0002: cost_0040 - 0.00593298247381 pi_0002_0000
 - 0.0057061924102 pi_0002_0001 - 0.00547928883756 pi_0002_0002
 - 0.00525227192753 pi_0002_0003 - 0.00502514185199 pi_0002_0004
 - 0.00479789878305 pi_0002_0005 - 0.00457054289303 pi_0002_0006
 - 0.00434307435447 pi_0002_0007 - 0.00411549334016 pi_0002_0008
 - 0.00388780002307 pi_0002_0009 - 0.00365999457644 pi_0002_0010
 - 0.00343207717368 pi_0002_0011 - 0.00320404798846 pi_0002_0012
 - 0.00297590719464 pi_0002_0013 - 0.00274765496632 pi_0002_0014
 - 0.0025192914778 pi_0002_0015 - 0.00229081690362 pi_0002_0016
 - 0.00206223141852 pi_0002_0017 - 0.00183353519745 pi_0002_0018
 - 0.00160472841558 pi_0002_0019 - 0.00137581124832 pi_0002_0020
 - 0.00114678387126 pi_0002_0021 - 0.000917646460219 pi_0002_0022
 - 0.000688399191224 pi_0002_0023 - 0.000459042240519 pi_0002_0024
 - 0.000229575784556 pi_0002_0025 >= 0
C_0040_cost_0003: cost_0040 >= 0
C_0040_cost_0004: cost_0040 >= 0
C_0040_cost_0005: cost_0040 >= 0
C_0040_cost_0006: cost_0040 >= 0
C_0040_cost_0007: cost_0040 >= 0
C_0040_cost_0008: cost_0040 >= 0
C_0040_cost_0009: cost_0040 >= 0
C_0040_cost_0010: cost_0040 >= 0
C_0040_cost_0011: cost_0040 >= 0
C_0040_cost_0012: cost_0040 >= 0
C_0040_cost_0013: cost_0040 >= 0
C_0040_cost_0014: cost_0040 >= 0
C_0040_cost_0015: cost_0040 >= 0
C_0040_cost_0016: cost_0040 >= 0
C_0040_cost_0017: cost_0040 >= 0
C_0040_cost_0018: cost_0040 >= 0
C_0040_cost_0019: cost_0040 >= 0
C_0040_cost_0020: cost_0040 >= 0
C_0040_cost_0021: cost_0040 >= 0
C_0040_cost_0022: cost_0040 >= 0
C_0040_cost_0023: cost_0040 >= 0
C_0040_cost_0024: cost_0040 >= 0
C_0040_cost_0025: cost_0040 >= 0
C_0040_cost_0026: cost_0040 - 0.0106666652041 pi_0026_0000 >= 0
C_0040_cost_0027: cost_0040 >= 0
C_0040_cost_0028: cost_0040 >= 0
C_0040_cost_0029: cost_0040 - 0.426666385001 pi_0029_0000 >= 0
C_0040_cost_0030: cost_0040 >= 0
C_0040_cost_0031: cost_0040 >= 0
C_0040_cost_0032: cost_0040 >= 0
C_0040_cost_0033: cost_0040 >= 0
C_0040_cost_0034: cost_0040 >= 0
C_0040_cost_0035: cost_0040 >= 0
C_0040_cost_0036: cost_0040 >= 0
C_0040_linear_0000: - act_0000 + xi_0040_0000 = 33
C_0040_linear_0001: - act_0001 + xi_0040_0001 = 18
C_0040_linear_0002: - act_0002 + xi_0040_0002 = 1042
C_0040_linear_0003: - act_0003 + xi_0040_0003 = 4
C_0040_linear_0004: - act_0004 + xi_0040_0004 = 2
C_0040_linear_0005: - act_0005 + xi_0040_0005 = 1
C_0040_linear_0006: - act_0006 + xi_0040_0006 = 0
C_0040_linear_0007: - act_0007 + xi_0040_0007 = 0
C_0040_linear_0008: - act_0008 + xi_0040_0008 = 1
C_0040_linear_0009: - act_0009 + xi_0040_0009 = 0
C_0040_linear_0010: - act_0010 + xi_0040_0010 = 0
C_0040_linear_0011: - act_0011 + xi_0040_0011 = 0
C_0040_linear_0012: - act_0012 + xi_0040_0012 = 0
C_0040_linear_0013: - act_0013 + xi_0040_0013 = 0
C_0040_linear_0014: - act_0014 + xi_0040_0014 = 1
C_0040_linear_0015: - act_0015 + xi_0040_0015 = 0
C_0040_linear_0016: - act_0016 + xi_0040_0016 = 0
C_0040_linear_0017: - act_0017 + xi_0040_0017 = 1
C_0040_linear_0018: - act_0018 + xi_0040_0018 = 0
C_0040_linear_0019: - act_0019 + xi_0040_0019 = 0
C_0040_linear_0020: - act_0020 + xi_0040_0020 = 0
C_0040_linear_0021: - act_0021 + xi_0040_0021 = 0
C_0040_linear_0022: - act_0022 + xi_0040_0022 = 0
C_0040_linear_0023: - act_0023 + xi_0040_0023 = 1
C_0040_linear_0024: - act_0024 + xi_0040_0024 = 0
C_0040_linear_0025: - act_0025 + xi_0040_0025 = 0
C_0040_linear_0026: - act_0026 + xi_0040_0026 = 0
C_0040_linear_0027: - act_0027 + xi_0040_0027 = 0
C_0040_linear_0028: - act_0028 + xi_0040_0028 = 0
C_0040_linear_0029: - act_0029 + xi_0040_0029 = 0
C_0040_linear_0030: - act_0030 + xi_0040_0030 = 1
C_0040_linear_0031: - act_0031 + xi_0040_0031 = 0
C_0040_linear_0032: - act_0032 + xi_0040_0032 = 1
C_0040_linear_0033: - act_0033 + xi_0040_0033 = 0
C_0040_linear_0034: - act_0034 + xi_0040_0034 = 1
C_0040_linear_0035: - act_0035 + xi_0040_0035 = 0
C_0040_linear_0036: - act_0036 + xi_0040_0036 = 0
C_0040_linear_0037: - act_0037 + xi_0040_0037 = 0
C_0040_linear_0038: - act_0038 + xi_0040_0038 = 0
C_0040_linear_0039: - act_0039 + xi_0040_0039 = 0
C_0040_loss_ge: - 10000 omg_0040 - 0.0111828930987 xi_0040_0000
 + 0.0316585861132 xi_0040_0001 + 0.000106039552982 xi_0040_0002
 + 0.2872356913 xi_0040_0003 + 0.013030358965 xi_0040_0004
 + 0.240120705533 xi_0040_0005 + 0.442580447937 xi_0040_0006
 - 0.375980671537 xi_0040_0007 + 0.392374151169 xi_0040_0008
 + 1.06701819784 xi_0040_0009 - 0.942756746323 xi_0040_0010
 + 0.412027349402 xi_0040_0011 + 0.570359951286 xi_0040_0012
 - 0.852905494999 xi_0040_0013 - 0.323418189169 xi_0040_0014
 + 0.252938924417 xi_0040_0015 - 0.0388599557068 xi_0040_0016
 - 0.020417849004 xi_0040_0017 - 0.119001175529 xi_0040_0018
 + 0.47399163059 xi_0040_0019 - 0.445604107063 xi_0040_0020
 - 0.0184582213876 xi_0040_0021 + 0.307589905785 xi_0040_0022
 + 0.444474821864 xi_0040_0023 - 0.187382383206 xi_0040_0024
 + 0.383302875585 xi_0040_0025 - 0.750161596334 xi_0040_0026
 - 1.33170117681 xi_0040_0027 + 0.0190658885385 xi_0040_0028
 - 0.745784276999 xi_0040_0029 - 0.516231038044 xi_0040_0030
 - 0.409255825925 xi_0040_0031 - 0.0994375517393 xi_0040_0032
 - 0.734256048841 xi_0040_0033 - 0.253933375138 xi_0040_0034
 - 0.256674950149 xi_0040_0035 - 0.732341101218 xi_0040_0036
 - 0.86707443001 xi_0040_0037 - 0.319117177314 xi_0040_0038
 + 0.0697086420108 xi_0040_0039 >= -9998.75705057
C_0040_loss_le: - 10000 omg_0040 - 0.0111828930987 xi_0040_0000
 + 0.0316585861132 xi_0040_0001 + 0.000106039552982 xi_0040_0002
 + 0.2872356913 xi_0040_0003 + 0.013030358965 xi_0040_0004
 + 0.240120705533 xi_0040_0005 + 0.442580447937 xi_0040_0006
 - 0.375980671537 xi_0040_0007 + 0.392374151169 xi_0040_0008
 + 1.06701819784 xi_0040_0009 - 0.942756746323 xi_0040_0010
 + 0.412027349402 xi_0040_0011 + 0.570359951286 xi_0040_0012
 - 0.852905494999 xi_0040_0013 - 0.323418189169 xi_0040_0014
 + 0.252938924417 xi_0040_0015 - 0.0388599557068 xi_0040_0016
 - 0.020417849004 xi_0040_0017 - 0.119001175529 xi_0040_0018
 + 0.47399163059 xi_0040_0019 - 0.445604107063 xi_0040_0020
 - 0.0184582213876 xi_0040_0021 + 0.307589905785 xi_0040_0022
 + 0.444474821864 xi_0040_0023 - 0.187382383206 xi_0040_0024
 + 0.383302875585 xi_0040_0025 - 0.750161596334 xi_0040_0026
 - 1.33170117681 xi_0040_0027 + 0.0190658885385 xi_0040_0028
 - 0.745784276999 xi_0040_0029 - 0.516231038044 xi_0040_0030
 - 0.409255825925 xi_0040_0031 - 0.0994375517393 xi_0040_0032
 - 0.734256048841 xi_0040_0033 - 0.253933375138 xi_0040_0034
 - 0.256674950149 xi_0040_0035 - 0.732341101218 xi_0040_0036
 - 0.86707443001 xi_0040_0037 - 0.319117177314 xi_0040_0038
 + 0.0697086420108 xi_0040_0039 <= 1.24294941651
C_0041_cost_0001: cost_0041 - 0.0124000182326 pi_0001_0000
 - 0.00617282715365 pi_0001_0001 >= 0
C_0041_cost_0002: cost_0041 - 0.00109307471987 pi_0002_0000
 - 0.00105095491231 pi_0002_0001 - 0.00100884130565 pi_0002_0002
 - 0.000966733909505 pi_0002_0003 - 0.000924632733516 pi_0002_0004
 - 0.000882537787305 pi_0002_0005 - 0.000840449080492 pi_0002_0006
 - 0.000798366622697 pi_0002_0007 - 0.000756290423531 pi_0002_0008
 - 0.000714220492605 pi_0002_0009 - 0.000672156839526 pi_0002_0010
 - 0.000630099473894 pi_0002_0011 - 0.000588048405308 pi_0002_0012
 - 0.000546003643363 pi_0002_0013 - 0.000503965197648 pi_0002_0014
 - 0.00046193307775 pi_0002_0015 - 0.000419907293248 pi_0002_0016
 - 0.000377887853723 pi_0002_0017 - 0.000335874768746 pi_0002_0018
 - 0.000293868047886 pi_0002_0019 - 0.000251867700707 pi_0002_0020
 - 0.000209873736771 pi_0002_0021 - 0.000167886165632 pi_0002_0022
 - 0.000125904996841 pi_0002_0023 - 8.39302399449e-05 pi_0002_0024
 - 4.19619044857e-05 pi_0002_0025 >= 0
C_0041_cost_0003: cost_0041 >= 0
C_0041_cost_0004: cost_0041 >= 0
C_0041_cost_0005: cost_0041 >= 0
C_0041_cost_0006: cost_0041 >= 0
C_0041_cost_0007: cost_0041 >= 0
C_0041_cost_0008: cost_0041 >= 0
C_0041_cost_0009: cost_0041 >= 0
C_0041_cost_0010: cost_0041 >= 0
C_0041_cost_0011: cost_0041 >= 0
C_0041_cost_0012: cost_0041 >= 0
C_0041_cost_0013: cost_0041 >= 0
C_0041_cost_0014: cost_0041 >= 0
C_0041_cost_0015: cost_0041 >= 0
C_0041_cost_0016: cost_0041 >= 0
C_0041_cost_0017: cost_0041 >= 0
C_0041_cost_0018: cost_0041 >= 0
C_0041_cost_0019: cost_0041 >= 0
C_0041_cost_0020: cost_0041 >= 0
C_0041_cost_0021: cost_0041 >= 0
C_0041_cost_0022: cost_0041 >= 0
C_0041_cost_0023: cost_0041 >= 0
C_0041_cost_0024: cost_0041 >= 0
C_0041_cost_0025: cost_0041 >= 0
C_0041_cost_0026: cost_0041 - 0.0106666652041 pi_0026_0000 >= 0
C_0041_cost_0027: cost_0041 >= 0
C_0041_cost_0028: cost_0041 >= 0
C_0041_cost_0029: cost_0041 - 0.426666385001 pi_0029_0000 >= 0
C_0041_cost_0030: cost_0041 >= 0
C_0041_cost_0031: cost_0041 >= 0
C_0041_cost_0032: cost_0041 >= 0
C_0041_cost_0033: cost_0041 >= 0
C_0041_cost_0034: cost_0041 >= 0
C_0041_cost_0035: cost_0041 >= 0
C_0041_cost_0036: cost_0041 >= 0
C_0041_linear_0000: - act_0000 + xi_0041_0000 = 38
C_0041_linear_0001: - act_0001 + xi_0041_0001 = 48
C_0041_linear_0002: - act_0002 + xi_0041_0002 = 6681
C_0041_linear_0003: - act_0003 + xi_0041_0003 = 4
C_0041_linear_0004: - act_0004 + xi_0041_0004 = 4
C_0041_linear_0005: - act_0005 + xi_0041_0005 = 1
C_0041_linear_0006: - act_0006 + xi_0041_0006 = 1
C_0041_linear_0007: - act_0007 + xi_0041_0007 = 1
C_0041_linear_0008: - act_0008 + xi_0041_0008 = 0
C_0041_linear_0009: - act_0009 + xi_0041_0009 = 0
C_0041_linear_0010: - act_0010 + xi_0041_0010 = 0
C_0041_linear_0011: - act_0011 + xi_0041_0011 = 0
C_0041_linear_0012: - act_0012 + xi_0041_0012 = 0
C_0041_linear_0013: - act_0013 + xi_0041_0013 = 0
C_0041_linear_0014: - act_0014 + xi_0041_0014 = 0
C_0041_linear_0015: - act_0015 + xi_0041_0015 = 0
C_0041_linear_0016: - act_0016 + xi_0041_0016 = 0
C_0041_linear_0017: - act_0017 + xi_0041_0017 = 1
C_0041_linear_0018: - act_0018 + xi_0041_0018 = 1
C_0041_linear_0019: - act_0019 + xi_0041_0019 = 0
C_0041_linear_0020: - act_0020 + xi_0041_0020 = 0
C_0041_linear_0021: - act_0021 + xi_0041_0021 = 0
C_0041_linear_0022: - act_0022 + xi_0041_0022 = 0
C_0041_linear_0023: - act_0023 + xi_0041_0023 = 0
C_0041_linear_0024: - act_0024 + xi_0041_0024 = 0
C_0041_linear_0025: - act_0025 + xi_0041_0025 = 0
C_0041_linear_0026: - act_0026 + xi_0041_0026 = 0
C_0041_linear_0027: - act_0027 + xi_0041_0027 = 0
C_0041_linear_0028: - act_0028 + xi_0041_0028 = 0
C_0041_linear_0029: - act_0029 + xi_0041_0029 = 0
C_0041_linear_0030: - act_0030 + xi_0041_0030 = 1
C_0041_linear_0031: - act_0031 + xi_0041_0031 = 0
C_0041_linear_0032: - act_0032 + xi_0041_0032 = 1
C_0041_linear_0033: - act_0033 + xi_0041_0033 = 0
C_0041_linear_0034: - act_0034 + xi_0041_0034 = 1
C_0041_linear_0035: - act_0035 + xi_0041_0035 = 0
C_0041_linear_0036: - act_0036 + xi_0041_0036 = 0
C_0041_linear_0037: - act_0037 + xi_0041_0037 = 0
C_0041_linear_0038: - act_0038 + xi_0041_0038 = 1
C_0041_linear_0039: - act_0039 + xi_0041_0039 = 1
C_0041_loss_ge: - 10000 omg_0041 - 0.0111828930987 xi_0041_0000
 + 0.0316585861132 xi_0041_0001 + 0.000106039552982 xi_0041_0002
 + 0.2872356913 xi_0041_0003 + 0.013030358965 xi_0041_0004
 + 0.240120705533 xi_0041_0005 + 0.442580447937 xi_0041_0006
 - 0.375980671537 xi_0041_0007 + 0.392374151169 xi_0041_0008
 + 1.06701819784 xi_0041_0009 - 0.942756746323 xi_0041_0010
 + 0.412027349402 xi_0041_0011 + 0.570359951286 xi_0041_0012
 - 0.852905494999 xi_0041_0013 - 0.323418189169 xi_0041_0014
 + 0.252938924417 xi_0041_0015 - 0.0388599557068 xi_0041_0016
 - 0.020417849004 xi_0041_0017 - 0.119001175529 xi_0041_0018
 + 0.47399163059 xi_0041_0019 - 0.445604107063 xi_0041_0020
 - 0.0184582213876 xi_0041_0021 + 0.307589905785 xi_0041_0022
 + 0.444474821864 xi_0041_0023 - 0.187382383206 xi_0041_0024
 + 0.383302875585 xi_0041_0025 - 0.750161596334 xi_0041_0026
 - 1.33170117681 xi_0041_0027 + 0.0190658885385 xi_0041_0028
 - 0.745784276999 xi_0041_0029 - 0.516231038044 xi_0041_0030
 - 0.409255825925 xi_0041_0031 - 0.0994375517393 xi_0041_0032
 - 0.734256048841 xi_0041_0033 - 0.253933375138 xi_0041_0034
 - 0.256674950149 xi_0041_0035 - 0.732341101218 xi_0041_0036
 - 0.86707443001 xi_0041_0037 - 0.319117177314 xi_0041_0038
 + 0.0697086420108 xi_0041_0039 >= -9998.75705057
C_0041_loss_le: - 10000 omg_0041 - 0.0111828930987 xi_0041_0000
 + 0.0316585861132 xi_0041_0001 + 0.000106039552982 xi_0041_0002
 + 0.2872356913 xi_0041_0003 + 0.013030358965 xi_0041_0004
 + 0.240120705533 xi_0041_0005 + 0.442580447937 xi_0041_0006
 - 0.375980671537 xi_0041_0007 + 0.392374151169 xi_0041_0008
 + 1.06701819784 xi_0041_0009 - 0.942756746323 xi_0041_0010
 + 0.412027349402 xi_0041_0011 + 0.570359951286 xi_0041_0012
 - 0.852905494999 xi_0041_0013 - 0.323418189169 xi_0041_0014
 + 0.252938924417 xi_0041_0015 - 0.0388599557068 xi_0041_0016
 - 0.020417849004 xi_0041_0017 - 0.119001175529 xi_0041_0018
 + 0.47399163059 xi_0041_0019 - 0.445604107063 xi_0041_0020
 - 0.0184582213876 xi_0041_0021 + 0.307589905785 xi_0041_0022
 + 0.444474821864 xi_0041_0023 - 0.187382383206 xi_0041_0024
 + 0.383302875585 xi_0041_0025 - 0.750161596334 xi_0041_0026
 - 1.33170117681 xi_0041_0027 + 0.0190658885385 xi_0041_0028
 - 0.745784276999 xi_0041_0029 - 0.516231038044 xi_0041_0030
 - 0.409255825925 xi_0041_0031 - 0.0994375517393 xi_0041_0032
 - 0.734256048841 xi_0041_0033 - 0.253933375138 xi_0041_0034
 - 0.256674950149 xi_0041_0035 - 0.732341101218 xi_0041_0036
 - 0.86707443001 xi_0041_0037 - 0.319117177314 xi_0041_0038
 + 0.0697086420108 xi_0041_0039 <= 1.24294941651
C_0042_cost_0001: cost_0042 - 0.0124000182326 pi_0001_0000
 - 0.00617282715365 pi_0001_0001 >= 0
C_0042_cost_0002: cost_0042 - 0.000124801475139 pi_0002_0000
 - 0.000120002831153 pi_0002_0001 - 0.000115204069268 pi_0002_0002
 - 0.000110405190084 pi_0002_0003 - 0.000105606194204 pi_0002_0004
 - 0.000100807082232 pi_0002_0005 - 9.60078547743e-05 pi_0002_0006
 - 9.12085124385e-05 pi_0002_0007 - 8.64090558333e-05 pi_0002_0008
 - 8.16094855693e-05 pi_0002_0009 - 7.68098022583e-05 pi_0002_0010
 - 7.20100065138e-05 pi_0002_0011 - 6.72100989508e-05 pi_0002_0012
 - 6.24100801857e-05 pi_0002_0013 - 5.76099508365e-05 pi_0002_0014
 - 5.28097115226e-05 pi_0002_0015 - 4.80093628648e-05 pi_0002_0016
 - 4.32089054855e-05 pi_0002_0017 - 3.84083400085e-05 pi_0002_0018
 - 3.3607667059e-05 pi_0002_0019 - 2.88068872636e-05 pi_0002_0020
 - 2.40060012504e-05 pi_0002_0021 - 1.9205009649e-05 pi_0002_0022
 - 1.44039130902e-05 pi_0002_0023 - 9.6027122064e-06 pi_0002_0024
 - 4.80140763126e-06 pi_0002_0025 >= 0
C_0042_cost_0003: cost_0042 >= 0
C_0042_cost_0004: cost_0042 >= 0
C_0042_cost_0005: cost_0042 >= 0
C_0042_cost_0006: cost_0042 >= 0
C_0042_cost_0007: cost_0042 >= 0
C_0042_cost_0008: cost_0042 >= 0
C_0042_cost_0009: cost_0042 >= 0
C_0042_cost_0010: cost_0042 >= 0
C_0042_cost_0011: cost_0042 >= 0
C_0042_cost_0012: cost_0042 >= 0
C_0042_cost_0013: cost_0042 >= 0
C_0042_cost_0014: cost_0042 >= 0
C_0042_cost_0015: cost_0042 >= 0
C_0042_cost_0016: cost_0042 >= 0
C_0042_cost_0017: cost_0042 >= 0
C_0042_cost_0018: cost_0042 >= 0
C_0042_cost_0019: cost_0042 >= 0
C_0042_cost_0020: cost_0042 >= 0
C_0042_cost_0021: cost_0042 >= 0
C_0042_cost_0022: cost_0042 >= 0
C_0042_cost_0023: cost_0042 >= 0
C_0042_cost_0024: cost_0042 >= 0
C_0042_cost_0025: cost_0042 >= 0
C_0042_cost_0026: cost_0042 - 0.0106666652041 pi_0026_0000 >= 0
C_0042_cost_0027: cost_0042 >= 0
C_0042_cost_0028: cost_0042 >= 0
C_0042_cost_0029: cost_0042 - 0.426666385001 pi_0029_0000 >= 0
C_0042_cost_0030: cost_0042 >= 0
C_0042_cost_0031: cost_0042 >= 0
C_0042_cost_0032: cost_0042 >= 0
C_0042_cost_0033: cost_0042 >= 0
C_0042_cost_0034: cost_0042 >= 0
C_0042_cost_0035: cost_0042 >= 0
C_0042_cost_0036: cost_0042 >= 0
C_0042_linear_0000: - act_0000 + xi_0042_0000 = 25
C_0042_linear_0001: - act_0001 + xi_0042_0001 = 48
C_0042_linear_0002: - act_0002 + xi_0042_0002 = 14421
C_0042_linear_0003: - act_0003 + xi_0042_0003 = 2
C_0042_linear_0004: - act_0004 + xi_0042_0004 = 2
C_0042_linear_0005: - act_0005 + xi_0042_0005 = 1
C_0042_linear_0006: - act_0006 + xi_0042_0006 = 0
C_0042_linear_0007: - act_0007 + xi_0042_0007 = 1
C_0042_linear_0008: - act_0008 + xi_0042_0008 = 1
C_0042_linear_0009: - act_0009 + xi_0042_0009 = 0
C_0042_linear_0010: - act_0010 + xi_0042_0010 = 0
C_0042_linear_0011: - act_0011 + xi_0042_0011 = 0
C_0042_linear_0012: - act_0012 + xi_0042_0012 = 0
C_0042_linear_0013: - act_0013 + xi_0042_0013 = 0
C_0042_linear_0014: - act_0014 + xi_0042_0014 = 1
C_0042_linear_0015: - act_0015 + xi_0042_0015 = 0
C_0042_linear_0016: - act_0016 + xi_0042_0016 = 0
C_0042_linear_0017: - act_0017 + xi_0042_0017 = 1
C_0042_linear_0018: - act_0018 + xi_0042_0018 = 1
C_0042_linear_0019: - act_0019 + xi_0042_0019 = 0
C_0042_linear_0020: - act_0020 + xi_0042_0020 = 0
C_0042_linear_0021: - act_0021 + xi_0042_0021 = 0
C_0042_linear_0022: - act_0022 + xi_0042_0022 = 0
C_0042_linear_0023: - act_0023 + xi_0042_0023 = 0
C_0042_linear_0024: - act_0024 + xi_0042_0024 = 0
C_0042_linear_0025: - act_0025 + xi_0042_0025 = 0
C_0042_linear_0026: - act_0026 + xi_0042_0026 = 0
C_0042_linear_0027: - act_0027 + xi_0042_0027 = 0
C_0042_linear_0028: - act_0028 + xi_0042_0028 = 0
C_0042_linear_0029: - act_0029 + xi_0042_0029 = 0
C_0042_linear_0030: - act_0030 + xi_0042_0030 = 1
C_0042_linear_0031: - act_0031 + xi_0042_0031 = 0
C_0042_linear_0032: - act_0032 + xi_0042_0032 = 1
C_0042_linear_0033: - act_0033 + xi_0042_0033 = 0
C_0042_linear_0034: - act_0034 + xi_0042_0034 = 1
C_0042_linear_0035: - act_0035 + xi_0042_0035 = 0
C_0042_linear_0036: - act_0036 + xi_0042_0036 = 0
C_0042_linear_0037: - act_0037 + xi_0042_0037 = 0
C_0042_linear_0038: - act_0038 + xi_0042_0038 = 1
C_0042_linear_0039: - act_0039 + xi_0042_0039 = 1
C_0042_loss_ge: - 10000 omg_0042 - 0.0111828930987 xi_0042_0000
 + 0.0316585861132 xi_0042_0001 + 0.000106039552982 xi_0042_0002
 + 0.2872356913 xi_0042_0003 + 0.013030358965 xi_0042_0004
 + 0.240120705533 xi_0042_0005 + 0.442580447937 xi_0042_0006
 - 0.375980671537 xi_0042_0007 + 0.392374151169 xi_0042_0008
 + 1.06701819784 xi_0042_0009 - 0.942756746323 xi_0042_0010
 + 0.412027349402 xi_0042_0011 + 0.570359951286 xi_0042_0012
 - 0.852905494999 xi_0042_0013 - 0.323418189169 xi_0042_0014
 + 0.252938924417 xi_0042_0015 - 0.0388599557068 xi_0042_0016
 - 0.020417849004 xi_0042_0017 - 0.119001175529 xi_0042_0018
 + 0.47399163059 xi_0042_0019 - 0.445604107063 xi_0042_0020
 - 0.0184582213876 xi_0042_0021 + 0.307589905785 xi_0042_0022
 + 0.444474821864 xi_0042_0023 - 0.187382383206 xi_0042_0024
 + 0.383302875585 xi_0042_0025 - 0.750161596334 xi_0042_0026
 - 1.33170117681 xi_0042_0027 + 0.0190658885385 xi_0042_0028
 - 0.745784276999 xi_0042_0029 - 0.516231038044 xi_0042_0030
 - 0.409255825925 xi_0042_0031 - 0.0994375517393 xi_0042_0032
 - 0.734256048841 xi_0042_0033 - 0.253933375138 xi_0042_0034
 - 0.256674950149 xi_0042_0035 - 0.732341101218 xi_0042_0036
 - 0.86707443001 xi_0042_0037 - 0.319117177314 xi_0042_0038
 + 0.0697086420108 xi_0042_0039 >= -9998.75705057
C_0042_loss_le: - 10000 omg_0042 - 0.0111828930987 xi_0042_0000
 + 0.0316585861132 xi_0042_0001 + 0.000106039552982 xi_0042_0002
 + 0.2872356913 xi_0042_0003 + 0.013030358965 xi_0042_0004
 + 0.240120705533 xi_0042_0005 + 0.442580447937 xi_0042_0006
 - 0.375980671537 xi_0042_0007 + 0.392374151169 xi_0042_0008
 + 1.06701819784 xi_0042_0009 - 0.942756746323 xi_0042_0010
 + 0.412027349402 xi_0042_0011 + 0.570359951286 xi_0042_0012
 - 0.852905494999 xi_0042_0013 - 0.323418189169 xi_0042_0014
 + 0.252938924417 xi_0042_0015 - 0.0388599557068 xi_0042_0016
 - 0.020417849004 xi_0042_0017 - 0.119001175529 xi_0042_0018
 + 0.47399163059 xi_0042_0019 - 0.445604107063 xi_0042_0020
 - 0.0184582213876 xi_0042_0021 + 0.307589905785 xi_0042_0022
 + 0.444474821864 xi_0042_0023 - 0.187382383206 xi_0042_0024
 + 0.383302875585 xi_0042_0025 - 0.750161596334 xi_0042_0026
 - 1.33170117681 xi_0042_0027 + 0.0190658885385 xi_0042_0028
 - 0.745784276999 xi_0042_0029 - 0.516231038044 xi_0042_0030
 - 0.409255825925 xi_0042_0031 - 0.0994375517393 xi_0042_0032
 - 0.734256048841 xi_0042_0033 - 0.253933375138 xi_0042_0034
 - 0.256674950149 xi_0042_0035 - 0.732341101218 xi_0042_0036
 - 0.86707443001 xi_0042_0037 - 0.319117177314 xi_0042_0038
 + 0.0697086420108 xi_0042_0039 <= 1.24294941651
C_0043_cost_0001: cost_0043 - 0.0653909198978 pi_0001_0000
 - 0.0317669758175 pi_0001_0001 >= 0
C_0043_cost_0002: cost_0043 - 0.00636421194496 pi_0002_0000
 - 0.00612042477045 pi_0002_0001 - 0.0058765567691 pi_0002_0002
 - 0.00563260814161 pi_0002_0003 - 0.00538857908877 pi_0002_0004
 - 0.00514446981148 pi_0002_0005 - 0.00490028051074 pi_0002_0006
 - 0.00465601138766 pi_0002_0007 - 0.00441166264344 pi_0002_0008
 - 0.00416723447938 pi_0002_0009 - 0.00392272709691 pi_0002_0010
 - 0.00367814069753 pi_0002_0011 - 0.00343347548283 pi_0002_0012
 - 0.00318873165454 pi_0002_0013 - 0.00294390941445 pi_0002_0014
 - 0.00269900896447 pi_0002_0015 - 0.00245403050659 pi_0002_0016
 - 0.0022089742429 pi_0002_0017 - 0.0019638403756 pi_0002_0018
 - 0.00171862910695 pi_0002_0019 - 0.00147334063934 pi_0002_0020
 - 0.00122797517524 pi_0002_0021 - 0.000982532917198 pi_0002_0022
 - 0.000737014067868 pi_0002_0023 - 0.00049141882999 pi_0002_0024
 - 0.000245747406395 pi_0002_0025 >= 0
C_0043_cost_0003: cost_0043 >= 0
C_0043_cost_0004: cost_0043 >= 0
C_0043_cost_0005: cost_0043 >= 0
C_0043_cost_0006: cost_0043 >= 0
C_0043_cost_0007: cost_0043 >= 0
C_0043_cost_0008: cost_0043 >= 0
C_0043_cost_0009: cost_0043 >= 0
C_0043_cost_0010: cost_0043 >= 0
C_0043_cost_0011: cost_0043 >= 0
C_0043_cost_0012: cost_0043 >= 0
C_0043_cost_0013: cost_0043 >= 0
C_0043_cost_0014: cost_0043 >= 0
C_0043_cost_0015: cost_0043 >= 0
C_0043_cost_0016: cost_0043 >= 0
C_0043_cost_0017: cost_0043 >= 0
C_0043_cost_0018: cost_0043 >= 0
C_0043_cost_0019: cost_0043 >= 0
C_0043_cost_0020: cost_0043 >= 0
C_0043_cost_0021: cost_0043 >= 0
C_0043_cost_0022: cost_0043 >= 0
C_0043_cost_0023: cost_0043 >= 0
C_0043_cost_0024: cost_0043 >= 0
C_0043_cost_0025: cost_0043 >= 0
C_0043_cost_0026: cost_0043 - 0.0106666652041 pi_0026_0000 >= 0
C_0043_cost_0027: cost_0043 >= 0
C_0043_cost_0028: cost_0043 >= 0
C_0043_cost_0029: cost_0043 - 0.426666385001 pi_0029_0000 >= 0
C_0043_cost_0030: cost_0043 >= 0
C_0043_cost_0031: cost_0043 >= 0
C_0043_cost_0032: cost_0043 >= 0
C_0043_cost_0033: cost_0043 >= 0
C_0043_cost_0034: cost_0043 >= 0
C_0043_cost_0035: cost_0043 >= 0
C_0043_cost_0036: cost_0043 >= 0
C_0043_linear_0000: - act_0000 + xi_0043_0000 = 23
C_0043_linear_0001: - act_0001 + xi_0043_0001 = 18
C_0043_linear_0002: - act_0002 + xi_0043_0002 = 1216
C_0043_linear_0003: - act_0003 + xi_0043_0003 = 4
C_0043_linear_0004: - act_0004 + xi_0043_0004 = 3
C_0043_linear_0005: - act_0005 + xi_0043_0005 = 1
C_0043_linear_0006: - act_0006 + xi_0043_0006 = 0
C_0043_linear_0007: - act_0007 + xi_0043_0007 = 1
C_0043_linear_0008: - act_0008 + xi_0043_0008 = 1
C_0043_linear_0009: - act_0009 + xi_0043_0009 = 0
C_0043_linear_0010: - act_0010 + xi_0043_0010 = 0
C_0043_linear_0011: - act_0011 + xi_0043_0011 = 0
C_0043_linear_0012: - act_0012 + xi_0043_0012 = 0
C_0043_linear_0013: - act_0013 + xi_0043_0013 = 0
C_0043_linear_0014: - act_0014 + xi_0043_0014 = 0
C_0043_linear_0015: - act_0015 + xi_0043_0015 = 1
C_0043_linear_0016: - act_0016 + xi_0043_0016 = 0
C_0043_linear_0017: - act_0017 + xi_0043_0017 = 1
C_0043_linear_0018: - act_0018 + xi_0043_0018 = 0
C_0043_linear_0019: - act_0019 + xi_0043_0019 = 0
C_0043_linear_0020: - act_0020 + xi_0043_0020 = 0
C_0043_linear_0021: - act_0021 + xi_0043_0021 = 0
C_0043_linear_0022: - act_0022 + xi_0043_0022 = 0
C_0043_linear_0023: - act_0023 + xi_0043_0023 = 1
C_0043_linear_0024: - act_0024 + xi_0043_0024 = 0
C_0043_linear_0025: - act_0025 + xi_0043_0025 = 0
C_0043_linear_0026: - act_0026 + xi_0043_0026 = 0
C_0043_linear_0027: - act_0027 + xi_0043_0027 = 0
C_0043_linear_0028: - act_0028 + xi_0043_0028 = 1
C_0043_linear_0029: - act_0029 + xi_0043_0029 = 0
C_0043_linear_0030: - act_0030 + xi_0043_0030 = 0
C_0043_linear_0031: - act_0031 + xi_0043_0031 = 1
C_0043_linear_0032: - act_0032 + xi_0043_0032 = 0
C_0043_linear_0033: - act_0033 + xi_0043_0033 = 0
C_0043_linear_0034: - act_0034 + xi_0043_0034 = 1
C_0043_linear_0035: - act_0035 + xi_0043_0035 = 0
C_0043_linear_0036: - act_0036 + xi_0043_0036 = 0
C_0043_linear_0037: - act_0037 + xi_0043_0037 = 0
C_0043_linear_0038: - act_0038 + xi_0043_0038 = 0
C_0043_linear_0039: - act_0039 + xi_0043_0039 = 0
C_0043_loss_ge: - 10000 omg_0043 - 0.0111828930987 xi_0043_0000
 + 0.0316585861132 xi_0043_0001 + 0.000106039552982 xi_0043_0002
 + 0.2872356913 xi_0043_0003 + 0.013030358965 xi_0043_0004
 + 0.240120705533 xi_0043_0005 + 0.442580447937 xi_0043_0006
 - 0.375980671537 xi_0043_0007 + 0.392374151169 xi_0043_0008
 + 1.06701819784 xi_0043_0009 - 0.942756746323 xi_0043_0010
 + 0.412027349402 xi_0043_0011 + 0.570359951286 xi_0043_0012
 - 0.852905494999 xi_0043_0013 - 0.323418189169 xi_0043_0014
 + 0.252938924417 xi_0043_0015 - 0.0388599557068 xi_0043_0016
 - 0.020417849004 xi_0043_0017 - 0.119001175529 xi_0043_0018
 + 0.47399163059 xi_0043_0019 - 0.445604107063 xi_0043_0020
 - 0.0184582213876 xi_0043_0021 + 0.307589905785 xi_0043_0022
 + 0.444474821864 xi_0043_0023 - 0.187382383206 xi_0043_0024
 + 0.383302875585 xi_0043_0025 - 0.750161596334 xi_0043_0026
 - 1.33170117681 xi_0043_0027 + 0.0190658885385 xi_0043_0028
 - 0.745784276999 xi_0043_0029 - 0.516231038044 xi_0043_0030
 - 0.409255825925 xi_0043_0031 - 0.0994375517393 xi_0043_0032
 - 0.734256048841 xi_0043_0033 - 0.253933375138 xi_0043_0034
 - 0.256674950149 xi_0043_0035 - 0.732341101218 xi_0043_0036
 - 0.86707443001 xi_0043_0037 - 0.319117177314 xi_0043_0038
 + 0.0697086420108 xi_0043_0039 >= -9998.75705057
C_0043_loss_le: - 10000 omg_0043 - 0.0111828930987 xi_0043_0000
 + 0.0316585861132 xi_0043_0001 + 0.000106039552982 xi_0043_0002
 + 0.2872356913 xi_0043_0003 + 0.013030358965 xi_0043_0004
 + 0.240120705533 xi_0043_0005 + 0.442580447937 xi_0043_0006
 - 0.375980671537 xi_0043_0007 + 0.392374151169 xi_0043_0008
 + 1.06701819784 xi_0043_0009 - 0.942756746323 xi_0043_0010
 + 0.412027349402 xi_0043_0011 + 0.570359951286 xi_0043_0012
 - 0.852905494999 xi_0043_0013 - 0.323418189169 xi_0043_0014
 + 0.252938924417 xi_0043_0015 - 0.0388599557068 xi_0043_0016
 - 0.020417849004 xi_0043_0017 - 0.119001175529 xi_0043_0018
 + 0.47399163059 xi_0043_0019 - 0.445604107063 xi_0043_0020
 - 0.0184582213876 xi_0043_0021 + 0.307589905785 xi_0043_0022
 + 0.444474821864 xi_0043_0023 - 0.187382383206 xi_0043_0024
 + 0.383302875585 xi_0043_0025 - 0.750161596334 xi_0043_0026
 - 1.33170117681 xi_0043_0027 + 0.0190658885385 xi_0043_0028
 - 0.745784276999 xi_0043_0029 - 0.516231038044 xi_0043_0030
 - 0.409255825925 xi_0043_0031 - 0.0994375517393 xi_0043_0032
 - 0.734256048841 xi_0043_0033 - 0.253933375138 xi_0043_0034
 - 0.256674950149 xi_0043_0035 - 0.732341101218 xi_0043_0036
 - 0.86707443001 xi_0043_0037 - 0.319117177314 xi_0043_0038
 + 0.0697086420108 xi_0043_0039 <= 1.24294941651
C_0044_cost_0001: cost_0044 - 0.0124000182326 pi_0001_0000
 - 0.00617282715365 pi_0001_0001 >= 0
C_0044_cost_0002: cost_0044 - 0.00010765257415 pi_0002_0000
 - 0.000103492187688 pi_0002_0001 - 9.9333372568e-05 pi_0002_0002
 - 9.51761313959e-05 pi_0002_0003 - 9.10204667781e-05 pi_0002_0004
 - 8.68663813223e-05 pi_0002_0005 - 8.27138776363e-05 pi_0002_0006
 - 7.85629583295e-05 pi_0002_0007 - 7.4413626012e-05 pi_0002_0008
 - 7.02658832946e-05 pi_0002_0009 - 6.61197327895e-05 pi_0002_0010
 - 6.1975177109e-05 pi_0002_0011 - 5.78322188669e-05 pi_0002_0012
 - 5.36908606775e-05 pi_0002_0013 - 4.95511051561e-05 pi_0002_0014
 - 4.54129549187e-05 pi_0002_0015 - 4.12764125819e-05 pi_0002_0016
 - 3.71414807636e-05 pi_0002_0017 - 3.3008162082e-05 pi_0002_0018
 - 2.88764591563e-05 pi_0002_0019 - 2.47463746063e-05 pi_0002_0020
 - 2.06179110527e-05 pi_0002_0021 - 1.64910711167e-05 pi_0002_0022
 - 1.23658574204e-05 pi_0002_0023 - 8.24227258633e-06 pi_0002_0024
 - 4.12031923824e-06 pi_0002_0025 >= 0
C_0044_cost_0003: cost_0044 >= 0
C_0044_cost_0004: cost_0044 >= 0
C_0044_cost_0005: cost_0044 >= 0
C_0044_cost_0006: cost_0044 >= 0
C_0044_cost_0007: cost_0044 >= 0
C_0044_cost_0008: cost_0044 >= 0
C_0044_cost_0009: cost_0044 >= 0
C_0044_cost_0010: cost_0044 >= 0
C_0044_cost_0011: cost_0044 >= 0
C_0044_cost_0012: cost_0044 >= 0
C_0044_cost_0013: cost_0044 >= 0
C_0044_cost_0014: cost_0044 >= 0
C_0044_cost_0015: cost_0044 >= 0
C_0044_cost_0016: cost_0044 >= 0
C_0044_cost_0017: cost_0044 >= 0
C_0044_cost_0018: cost_0044 >= 0
C_0044_cost_0019: cost_0044 >= 0
C_0044_cost_0020: cost_0044 >= 0
C_0044_cost_0021: cost_0044 >= 0
C_0044_cost_0022: cost_0044 >= 0
C_0044_cost_0023: cost_0044 >= 0
C_0044_cost_0024: cost_0044 >= 0
C_0044_cost_0025: cost_0044 >= 0
C_0044_cost_0026: cost_0044 - 0.0106666652041 pi_0026_0000 >= 0
C_0044_cost_0027: cost_0044 >= 0
C_0044_cost_0028: cost_0044 >= 0
C_0044_cost_0029: cost_0044 - 0.426666385001 pi_0029_0000 >= 0
C_0044_cost_0030: cost_0044 >= 0
C_0044_cost_0031: cost_0044 >= 0
C_0044_cost_0032: cost_0044 >= 0
C_0044_cost_0033: cost_0044 >= 0
C_0044_cost_0034: cost_0044 >= 0
C_0044_cost_0035: cost_0044 >= 0
C_0044_cost_0036: cost_0044 >= 0
C_0044_linear_0000: - act_0000 + xi_0044_0000 = 23
C_0044_linear_0001: - act_0001 + xi_0044_0001 = 48
C_0044_linear_0002: - act_0002 + xi_0044_0002 = 15672
C_0044_linear_0003: - act_0003 + xi_0044_0003 = 2
C_0044_linear_0004: - act_0004 + xi_0044_0004 = 2
C_0044_linear_0005: - act_0005 + xi_0044_0005 = 1
C_0044_linear_0006: - act_0006 + xi_0044_0006 = 0
C_0044_linear_0007: - act_0007 + xi_0044_0007 = 1
C_0044_linear_0008: - act_0008 + xi_0044_0008 = 1
C_0044_linear_0009: - act_0009 + xi_0044_0009 = 0
C_0044_linear_0010: - act_0010 + xi_0044_0010 = 0
C_0044_linear_0011: - act_0011 + xi_0044_0011 = 0
C_0044_linear_0012: - act_0012 + xi_0044_0012 = 0
C_0044_linear_0013: - act_0013 + xi_0044_0013 = 0
C_0044_linear_0014: - act_0014 + xi_0044_0014 = 1
C_0044_linear_0015: - act_0015 + xi_0044_0015 = 0
C_0044_linear_0016: - act_0016 + xi_0044_0016 = 0
C_0044_linear_0017: - act_0017 + xi_0044_0017 = 1
C_0044_linear_0018: - act_0018 + xi_0044_0018 = 1
C_0044_linear_0019: - act_0019 + xi_0044_0019 = 0
C_0044_linear_0020: - act_0020 + xi_0044_0020 = 0
C_0044_linear_0021: - act_0021 + xi_0044_0021 = 0
C_0044_linear_0022: - act_0022 + xi_0044_0022 = 0
C_0044_linear_0023: - act_0023 + xi_0044_0023 = 0
C_0044_linear_0024: - act_0024 + xi_0044_0024 = 0
C_0044_linear_0025: - act_0025 + xi_0044_0025 = 0
C_0044_linear_0026: - act_0026 + xi_0044_0026 = 0
C_0044_linear_0027: - act_0027 + xi_0044_0027 = 0
C_0044_linear_0028: - act_0028 + xi_0044_0028 = 0
C_0044_linear_0029: - act_0029 + xi_0044_0029 = 0
C_0044_linear_0030: - act_0030 + xi_0044_0030 = 1
C_0044_linear_0031: - act_0031 + xi_0044_0031 = 0
C_0044_linear_0032: - act_0032 + xi_0044_0032 = 1
C_0044_linear_0033: - act_0033 + xi_0044_0033 = 0
C_0044_linear_0034: - act_0034 + xi_0044_0034 = 1
C_0044_linear_0035: - act_0035 + xi_0044_0035 = 0
C_0044_linear_0036: - act_0036 + xi_0044_0036 = 0
C_0044_linear_0037: - act_0037 + xi_0044_0037 = 0
C_0044_linear_0038: - act_0038 + xi_0044_0038 = 1
C_0044_linear_0039: - act_0039 + xi_0044_0039 = 1
C_0044_loss_ge: - 10000 omg_0044 - 0.0111828930987 xi_0044_0000
 + 0.0316585861132 xi_0044_0001 + 0.000106039552982 xi_0044_0002
 + 0.2872356913 xi_0044_0003 + 0.013030358965 xi_0044_0004
 + 0.240120705533 xi_0044_0005 + 0.442580447937 xi_0044_0006
 - 0.375980671537 xi_0044_0007 + 0.392374151169 xi_0044_0008
 + 1.06701819784 xi_0044_0009 - 0.942756746323 xi_0044_0010
 + 0.412027349402 xi_0044_0011 + 0.570359951286 xi_0044_0012
 - 0.852905494999 xi_0044_0013 - 0.323418189169 xi_0044_0014
 + 0.252938924417 xi_0044_0015 - 0.0388599557068 xi_0044_0016
 - 0.020417849004 xi_0044_0017 - 0.119001175529 xi_0044_0018
 + 0.47399163059 xi_0044_0019 - 0.445604107063 xi_0044_0020
 - 0.0184582213876 xi_0044_0021 + 0.307589905785 xi_0044_0022
 + 0.444474821864 xi_0044_0023 - 0.187382383206 xi_0044_0024
 + 0.383302875585 xi_0044_0025 - 0.750161596334 xi_0044_0026
 - 1.33170117681 xi_0044_0027 + 0.0190658885385 xi_0044_0028
 - 0.745784276999 xi_0044_0029 - 0.516231038044 xi_0044_0030
 - 0.409255825925 xi_0044_0031 - 0.0994375517393 xi_0044_0032
 - 0.734256048841 xi_0044_0033 - 0.253933375138 xi_0044_0034
 - 0.256674950149 xi_0044_0035 - 0.732341101218 xi_0044_0036
 - 0.86707443001 xi_0044_0037 - 0.319117177314 xi_0044_0038
 + 0.0697086420108 xi_0044_0039 >= -9998.75705057
C_0044_loss_le: - 10000 omg_0044 - 0.0111828930987 xi_0044_0000
 + 0.0316585861132 xi_0044_0001 + 0.000106039552982 xi_0044_0002
 + 0.2872356913 xi_0044_0003 + 0.013030358965 xi_0044_0004
 + 0.240120705533 xi_0044_0005 + 0.442580447937 xi_0044_0006
 - 0.375980671537 xi_0044_0007 + 0.392374151169 xi_0044_0008
 + 1.06701819784 xi_0044_0009 - 0.942756746323 xi_0044_0010
 + 0.412027349402 xi_0044_0011 + 0.570359951286 xi_0044_0012
 - 0.852905494999 xi_0044_0013 - 0.323418189169 xi_0044_0014
 + 0.252938924417 xi_0044_0015 - 0.0388599557068 xi_0044_0016
 - 0.020417849004 xi_0044_0017 - 0.119001175529 xi_0044_0018
 + 0.47399163059 xi_0044_0019 - 0.445604107063 xi_0044_0020
 - 0.0184582213876 xi_0044_0021 + 0.307589905785 xi_0044_0022
 + 0.444474821864 xi_0044_0023 - 0.187382383206 xi_0044_0024
 + 0.383302875585 xi_0044_0025 - 0.750161596334 xi_0044_0026
 - 1.33170117681 xi_0044_0027 + 0.0190658885385 xi_0044_0028
 - 0.745784276999 xi_0044_0029 - 0.516231038044 xi_0044_0030
 - 0.409255825925 xi_0044_0031 - 0.0994375517393 xi_0044_0032
 - 0.734256048841 xi_0044_0033 - 0.253933375138 xi_0044_0034
 - 0.256674950149 xi_0044_0035 - 0.732341101218 xi_0044_0036
 - 0.86707443001 xi_0044_0037 - 0.319117177314 xi_0044_0038
 + 0.0697086420108 xi_0044_0039 <= 1.24294941651
C_0045_cost_0001: cost_0045 - 0.0639671434312 pi_0001_0000
 - 0.0315831062354 pi_0001_0001 >= 0
C_0045_cost_0002: cost_0045 - 0.00634565200463 pi_0002_0000
 - 0.00610260128489 pi_0002_0001 - 0.00585946793696 pi_0002_0002
 - 0.00561625216057 pi_0002_0003 - 0.00537295415552 pi_0002_0004
 - 0.00512957412176 pi_0002_0005 - 0.00488611225933 pi_0002_0006
 - 0.00464256876838 pi_0002_0007 - 0.00439894384916 pi_0002_0008
 - 0.00415523770206 pi_0002_0009 - 0.00391145052754 pi_0002_0010
 - 0.00366758252619 pi_0002_0011 - 0.0034236338987 pi_0002_0012
 - 0.00317960484586 pi_0002_0013 - 0.00293549556857 pi_0002_0014
 - 0.00269130626784 pi_0002_0015 - 0.00244703714475 pi_0002_0016
 - 0.00220268840053 pi_0002_0017 - 0.00195826023648 pi_0002_0018
 - 0.00171375285401 pi_0002_0019 - 0.00146916645462 pi_0002_0020
 - 0.00122450123993 pi_0002_0021 - 0.000979757411639 pi_0002_0022
 - 0.000734935171552 pi_0002_0023 - 0.000490034721569 pi_0002_0024
 - 0.000245056263687 pi_0002_0025 >= 0
C_0045_cost_0003: cost_0045 >= 0
C_0045_cost_0004: cost_0045 >= 0
C_0045_cost_0005: cost_0045 >= 0
C_0045_cost_0006: cost_0045 >= 0
C_0045_cost_0007: cost_0045 >= 0
C_0045_cost_0008: cost_0045 >= 0
C_0045_cost_0009: cost_0045 >= 0
C_0045_cost_0010: cost_0045 >= 0
C_0045_cost_0011: cost_0045 >= 0
C_0045_cost_0012: cost_0045 >= 0
C_0045_cost_0013: cost_0045 >= 0
C_0045_cost_0014: cost_0045 >= 0
C_0045_cost_0015: cost_0045 >= 0
C_0045_cost_0016: cost_0045 >= 0
C_0045_cost_0017: cost_0045 >= 0
C_0045_cost_0018: cost_0045 >= 0
C_0045_cost_0019: cost_0045 >= 0
C_0045_cost_0020: cost_0045 >= 0
C_0045_cost_0021: cost_0045 >= 0
C_0045_cost_0022: cost_0045 >= 0
C_0045_cost_0023: cost_0045 >= 0
C_0045_cost_0024: cost_0045 >= 0
C_0045_cost_0025: cost_0045 >= 0
C_0045_cost_0026: cost_0045 - 0.0106666652041 pi_0026_0000 >= 0
C_0045_cost_0027: cost_0045 >= 0
C_0045_cost_0028: cost_0045 >= 0
C_0045_cost_0029: cost_0045 - 0.426666385001 pi_0029_0000 >= 0
C_0045_cost_0030: cost_0045 >= 0
C_0045_cost_0031: cost_0045 >= 0
C_0045_cost_0032: cost_0045 >= 0
C_0045_cost_0033: cost_0045 >= 0
C_0045_cost_0034: cost_0045 >= 0
C_0045_cost_0035: cost_0045 >= 0
C_0045_cost_0036: cost_0045 >= 0
C_0045_linear_0000: - act_0000 + xi_0045_0000 = 24
C_0045_linear_0001: - act_0001 + xi_0045_0001 = 24
C_0045_linear_0002: - act_0002 + xi_0045_0002 = 1207
C_0045_linear_0003: - act_0003 + xi_0045_0003 = 4
C_0045_linear_0004: - act_0004 + xi_0045_0004 = 4
C_0045_linear_0005: - act_0005 + xi_0045_0005 = 1
C_0045_linear_0006: - act_0006 + xi_0045_0006 = 0
C_0045_linear_0007: - act_0007 + xi_0045_0007 = 0
C_0045_linear_0008: - act_0008 + xi_0045_0008 = 1
C_0045_linear_0009: - act_0009 + xi_0045_0009 = 0
C_0045_linear_0010: - act_0010 + xi_0045_0010 = 0
C_0045_linear_0011: - act_0011 + xi_0045_0011 = 0
C_0045_linear_0012: - act_0012 + xi_0045_0012 = 0
C_0045_linear_0013: - act_0013 + xi_0045_0013 = 0
C_0045_linear_0014: - act_0014 + xi_0045_0014 = 0
C_0045_linear_0015: - act_0015 + xi_0045_0015 = 1
C_0045_linear_0016: - act_0016 + xi_0045_0016 = 0
C_0045_linear_0017: - act_0017 + xi_0045_0017 = 1
C_0045_linear_0018: - act_0018 + xi_0045_0018 = 0
C_0045_linear_0019: - act_0019 + xi_0045_0019 = 0
C_0045_linear_0020: - act_0020 + xi_0045_0020 = 0
C_0045_linear_0021: - act_0021 + xi_0045_0021 = 0
C_0045_linear_0022: - act_0022 + xi_0045_0022 = 0
C_0045_linear_0023: - act_0023 + xi_0045_0023 = 1
C_0045_linear_0024: - act_0024 + xi_0045_0024 = 0
C_0045_linear_0025: - act_0025 + xi_0045_0025 = 0
C_0045_linear_0026: - act_0026 + xi_0045_0026 = 0
C_0045_linear_0027: - act_0027 + xi_0045_0027 = 0
C_0045_linear_0028: - act_0028 + xi_0045_0028 = 1
C_0045_linear_0029: - act_0029 + xi_0045_0029 = 0
C_0045_linear_0030: - act_0030 + xi_0045_0030 = 0
C_0045_linear_0031: - act_0031 + xi_0045_0031 = 1
C_0045_linear_0032: - act_0032 + xi_0045_0032 = 0
C_0045_linear_0033: - act_0033 + xi_0045_0033 = 0
C_0045_linear_0034: - act_0034 + xi_0045_0034 = 1
C_0045_linear_0035: - act_0035 + xi_0045_0035 = 0
C_0045_linear_0036: - act_0036 + xi_0045_0036 = 0
C_0045_linear_0037: - act_0037 + xi_0045_0037 = 0
C_0045_linear_0038: - act_0038 + xi_0045_0038 = 0
C_0045_linear_0039: - act_0039 + xi_0045_0039 = 0
C_0045_loss_ge: - 10000 omg_0045 - 0.0111828930987 xi_0045_0000
 + 0.0316585861132 xi_0045_0001 + 0.000106039552982 xi_0045_0002
 + 0.2872356913 xi_0045_0003 + 0.013030358965 xi_0045_0004
 + 0.240120705533 xi_0045_0005 + 0.442580447937 xi_0045_0006
 - 0.375980671537 xi_0045_0007 + 0.392374151169 xi_0045_0008
 + 1.06701819784 xi_0045_0009 - 0.942756746323 xi_0045_0010
 + 0.412027349402 xi_0045_0011 + 0.570359951286 xi_0045_0012
 - 0.852905494999 xi_0045_0013 - 0.323418189169 xi_0045_0014
 + 0.252938924417 xi_0045_0015 - 0.0388599557068 xi_0045_0016
 - 0.020417849004 xi_0045_0017 - 0.119001175529 xi_0045_0018
 + 0.47399163059 xi_0045_0019 - 0.445604107063 xi_0045_0020
 - 0.0184582213876 xi_0045_0021 + 0.307589905785 xi_0045_0022
 + 0.444474821864 xi_0045_0023 - 0.187382383206 xi_0045_0024
 + 0.383302875585 xi_0045_0025 - 0.750161596334 xi_0045_0026
 - 1.33170117681 xi_0045_0027 + 0.0190658885385 xi_0045_0028
 - 0.745784276999 xi_0045_0029 - 0.516231038044 xi_0045_0030
 - 0.409255825925 xi_0045_0031 - 0.0994375517393 xi_0045_0032
 - 0.734256048841 xi_0045_0033 - 0.253933375138 xi_0045_0034
 - 0.256674950149 xi_0045_0035 - 0.732341101218 xi_0045_0036
 - 0.86707443001 xi_0045_0037 - 0.319117177314 xi_0045_0038
 + 0.0697086420108 xi_0045_0039 >= -9998.75705057
C_0045_loss_le: - 10000 omg_0045 - 0.0111828930987 xi_0045_0000
 + 0.0316585861132 xi_0045_0001 + 0.000106039552982 xi_0045_0002
 + 0.2872356913 xi_0045_0003 + 0.013030358965 xi_0045_0004
 + 0.240120705533 xi_0045_0005 + 0.442580447937 xi_0045_0006
 - 0.375980671537 xi_0045_0007 + 0.392374151169 xi_0045_0008
 + 1.06701819784 xi_0045_0009 - 0.942756746323 xi_0045_0010
 + 0.412027349402 xi_0045_0011 + 0.570359951286 xi_0045_0012
 - 0.852905494999 xi_0045_0013 - 0.323418189169 xi_0045_0014
 + 0.252938924417 xi_0045_0015 - 0.0388599557068 xi_0045_0016
 - 0.020417849004 xi_0045_0017 - 0.119001175529 xi_0045_0018
 + 0.47399163059 xi_0045_0019 - 0.445604107063 xi_0045_0020
 - 0.0184582213876 xi_0045_0021 + 0.307589905785 xi_0045_0022
 + 0.444474821864 xi_0045_0023 - 0.187382383206 xi_0045_0024
 + 0.383302875585 xi_0045_0025 - 0.750161596334 xi_0045_0026
 - 1.33170117681 xi_0045_0027 + 0.0190658885385 xi_0045_0028
 - 0.745784276999 xi_0045_0029 - 0.516231038044 xi_0045_0030
 - 0.409255825925 xi_0045_0031 - 0.0994375517393 xi_0045_0032
 - 0.734256048841 xi_0045_0033 - 0.253933375138 xi_0045_0034
 - 0.256674950149 xi_0045_0035 - 0.732341101218 xi_0045_0036
 - 0.86707443001 xi_0045_0037 - 0.319117177314 xi_0045_0038
 + 0.0697086420108 xi_0045_0039 <= 1.24294941651
C_0046_cost_0001: cost_0046 - 0.0873361949203 pi_0001_0000
 - 0.0442906580929 pi_0001_0001 >= 0
C_0046_cost_0002: cost_0046 - 0.00465861278264 pi_0002_0000
 - 0.00448138674877 pi_0002_0001 - 0.00430400409564 pi_0002_0002
 - 0.0041264648848 pi_0002_0003 - 0.00394876917816 pi_0002_0004
 - 0.00377091703799 pi_0002_0005 - 0.00359290852689 pi_0002_0006
 - 0.00341474370786 pi_0002_0007 - 0.00323642264422 pi_0002_0008
 - 0.00305794539966 pi_0002_0009 - 0.00287931203822 pi_0002_0010
 - 0.00270052262431 pi_0002_0011 - 0.00252157722269 pi_0002_0012
 - 0.00234247589846 pi_0002_0013 - 0.0021632187171 pi_0002_0014
 - 0.00198380574442 pi_0002_0015 - 0.00180423704662 pi_0002_0016
 - 0.00162451269022 pi_0002_0017 - 0.00144463274212 pi_0002_0018
 - 0.00126459726955 pi_0002_0019 - 0.00108440634013 pi_0002_0020
 - 0.000904060021811 pi_0002_0021 - 0.0007235583829 pi_0002_0022
 - 0.000542901492065 pi_0002_0023 - 0.000362089418327 pi_0002_0024
 - 0.000181122231062 pi_0002_0025 >= 0
C_0046_cost_0003: cost_0046 >= 0
C_0046_cost_0004: cost_0046 >= 0
C_0046_cost_0005: cost_0046 >= 0
C_0046_cost_0006: cost_0046 >= 0
C_0046_cost_0007: cost_0046 >= 0
C_0046_cost_0008: cost_0046 >= 0
C_0046_cost_0009: cost_0046 >= 0
C_0046_cost_0010: cost_0046 >= 0
C_0046_cost_0011: cost_0046 >= 0
C_0046_cost_0012: cost_0046 >= 0
C_0046_cost_0013: cost_0046 >= 0
C_0046_cost_0014: cost_0046 >= 0
C_0046_cost_0015: cost_0046 >= 0
C_0046_cost_0016: cost_0046 >= 0
C_0046_cost_0017: cost_0046 >= 0
C_0046_cost_0018: cost_0046 >= 0
C_0046_cost_0019: cost_0046 >= 0
C_0046_cost_0020: cost_0046 >= 0
C_0046_cost_0021: cost_0046 >= 0
C_0046_cost_0022: cost_0046 >= 0
C_0046_cost_0023: cost_0046 >= 0
C_0046_cost_0024: cost_0046 >= 0
C_0046_cost_0025: cost_0046 >= 0
C_0046_cost_0026: cost_0046 - 0.0106666652041 pi_0026_0000 >= 0
C_0046_cost_0027: cost_0046 >= 0
C_0046_cost_0028: cost_0046 >= 0
C_0046_cost_0029: cost_0046 - 0.426666385001 pi_0029_0000 >= 0
C_0046_cost_0030: cost_0046 >= 0
C_0046_cost_0031: cost_0046 >= 0
C_0046_cost_0032: cost_0046 >= 0
C_0046_cost_0033: cost_0046 >= 0
C_0046_cost_0034: cost_0046 >= 0
C_0046_cost_0035: cost_0046 >= 0
C_0046_cost_0036: cost_0046 >= 0
C_0046_linear_0000: - act_0000 + xi_0046_0000 = 40
C_0046_linear_0001: - act_0001 + xi_0046_0001 = 12
C_0046_linear_0002: - act_0002 + xi_0046_0002 = 684
C_0046_linear_0003: - act_0003 + xi_0046_0003 = 4
C_0046_linear_0004: - act_0004 + xi_0046_0004 = 4
C_0046_linear_0005: - act_0005 + xi_0046_0005 = 1
C_0046_linear_0006: - act_0006 + xi_0046_0006 = 1
C_0046_linear_0007: - act_0007 + xi_0046_0007 = 0
C_0046_linear_0008: - act_0008 + xi_0046_0008 = 1
C_0046_linear_0009: - act_0009 + xi_0046_0009 = 0
C_0046_linear_0010: - act_0010 + xi_0046_0010 = 0
C_0046_linear_0011: - act_0011 + xi_0046_0011 = 0
C_0046_linear_0012: - act_0012 + xi_0046_0012 = 0
C_0046_linear_0013: - act_0013 + xi_0046_0013 = 0
C_0046_linear_0014: - act_0014 + xi_0046_0014 = 0
C_0046_linear_0015: - act_0015 + xi_0046_0015 = 1
C_0046_linear_0016: - act_0016 + xi_0046_0016 = 0
C_0046_linear_0017: - act_0017 + xi_0046_0017 = 0
C_0046_linear_0018: - act_0018 + xi_0046_0018 = 0
C_0046_linear_0019: - act_0019 + xi_0046_0019 = 1
C_0046_linear_0020: - act_0020 + xi_0046_0020 = 0
C_0046_linear_0021: - act_0021 + xi_0046_0021 = 0
C_0046_linear_0022: - act_0022 + xi_0046_0022 = 0
C_0046_linear_0023: - act_0023 + xi_0046_0023 = 0
C_0046_linear_0024: - act_0024 + xi_0046_0024 = 0
C_0046_linear_0025: - act_0025 + xi_0046_0025 = 0
C_0046_linear_0026: - act_0026 + xi_0046_0026 = 0
C_0046_linear_0027: - act_0027 + xi_0046_0027 = 0
C_0046_linear_0028: - act_0028 + xi_0046_0028 = 0
C_0046_linear_0029: - act_0029 + xi_0046_0029 = 0
C_0046_linear_0030: - act_0030 + xi_0046_0030 = 1
C_0046_linear_0031: - act_0031 + xi_0046_0031 = 1
C_0046_linear_0032: - act_0032 + xi_0046_0032 = 0
C_0046_linear_0033: - act_0033 + xi_0046_0033 = 0
C_0046_linear_0034: - act_0034 + xi_0046_0034 = 1
C_0046_linear_0035: - act_0035 + xi_0046_0035 = 0
C_0046_linear_0036: - act_0036 + xi_0046_0036 = 0
C_0046_linear_0037: - act_0037 + xi_0046_0037 = 0
C_0046_linear_0038: - act_0038 + xi_0046_0038 = 1
C_0046_linear_0039: - act_0039 + xi_0046_0039 = 1
C_0046_loss_ge: - 10000 omg_0046 - 0.0111828930987 xi_0046_0000
 + 0.0316585861132 xi_0046_0001 + 0.000106039552982 xi_0046_0002
 + 0.2872356913 xi_0046_0003 + 0.013030358965 xi_0046_0004
 + 0.240120705533 xi_0046_0005 + 0.442580447937 xi_0046_0006
 - 0.375980671537 xi_0046_0007 + 0.392374151169 xi_0046_0008
 + 1.06701819784 xi_0046_0009 - 0.942756746323 xi_0046_0010
 + 0.412027349402 xi_0046_0011 + 0.570359951286 xi_0046_0012
 - 0.852905494999 xi_0046_0013 - 0.323418189169 xi_0046_0014
 + 0.252938924417 xi_0046_0015 - 0.0388599557068 xi_0046_0016
 - 0.020417849004 xi_0046_0017 - 0.119001175529 xi_0046_0018
 + 0.47399163059 xi_0046_0019 - 0.445604107063 xi_0046_0020
 - 0.0184582213876 xi_0046_0021 + 0.307589905785 xi_0046_0022
 + 0.444474821864 xi_0046_0023 - 0.187382383206 xi_0046_0024
 + 0.383302875585 xi_0046_0025 - 0.750161596334 xi_0046_0026
 - 1.33170117681 xi_0046_0027 + 0.0190658885385 xi_0046_0028
 - 0.745784276999 xi_0046_0029 - 0.516231038044 xi_0046_0030
 - 0.409255825925 xi_0046_0031 - 0.0994375517393 xi_0046_0032
 - 0.734256048841 xi_0046_0033 - 0.253933375138 xi_0046_0034
 - 0.256674950149 xi_0046_0035 - 0.732341101218 xi_0046_0036
 - 0.86707443001 xi_0046_0037 - 0.319117177314 xi_0046_0038
 + 0.0697086420108 xi_0046_0039 >= -9998.75705057
C_0046_loss_le: - 10000 omg_0046 - 0.0111828930987 xi_0046_0000
 + 0.0316585861132 xi_0046_0001 + 0.000106039552982 xi_0046_0002
 + 0.2872356913 xi_0046_0003 + 0.013030358965 xi_0046_0004
 + 0.240120705533 xi_0046_0005 + 0.442580447937 xi_0046_0006
 - 0.375980671537 xi_0046_0007 + 0.392374151169 xi_0046_0008
 + 1.06701819784 xi_0046_0009 - 0.942756746323 xi_0046_0010
 + 0.412027349402 xi_0046_0011 + 0.570359951286 xi_0046_0012
 - 0.852905494999 xi_0046_0013 - 0.323418189169 xi_0046_0014
 + 0.252938924417 xi_0046_0015 - 0.0388599557068 xi_0046_0016
 - 0.020417849004 xi_0046_0017 - 0.119001175529 xi_0046_0018
 + 0.47399163059 xi_0046_0019 - 0.445604107063 xi_0046_0020
 - 0.0184582213876 xi_0046_0021 + 0.307589905785 xi_0046_0022
 + 0.444474821864 xi_0046_0023 - 0.187382383206 xi_0046_0024
 + 0.383302875585 xi_0046_0025 - 0.750161596334 xi_0046_0026
 - 1.33170117681 xi_0046_0027 + 0.0190658885385 xi_0046_0028
 - 0.745784276999 xi_0046_0029 - 0.516231038044 xi_0046_0030
 - 0.409255825925 xi_0046_0031 - 0.0994375517393 xi_0046_0032
 - 0.734256048841 xi_0046_0033 - 0.253933375138 xi_0046_0034
 - 0.256674950149 xi_0046_0035 - 0.732341101218 xi_0046_0036
 - 0.86707443001 xi_0046_0037 - 0.319117177314 xi_0046_0038
 + 0.0697086420108 xi_0046_0039 <= 1.24294941651
C_0047_cost_0001: cost_0047 - 0.0639671434312 pi_0001_0000
 - 0.0315831062354 pi_0001_0001 >= 0
C_0047_cost_0002: cost_0047 - 0.00394085884814 pi_0002_0000
 - 0.00378838179086 pi_0002_0001 - 0.00363597734547 pi_0002_0002
 - 0.0034836454911 pi_0002_0003 - 0.00333138620685 pi_0002_0004
 - 0.00317919947184 pi_0002_0005 - 0.00302708526521 pi_0002_0006
 - 0.00287504356608 pi_0002_0007 - 0.00272307435359 pi_0002_0008
 - 0.00257117760689 pi_0002_0009 - 0.00241935330514 pi_0002_0010
 - 0.00226760142747 pi_0002_0011 - 0.00211592195307 pi_0002_0012
 - 0.00196431486109 pi_0002_0013 - 0.00181278013072 pi_0002_0014
 - 0.00166131774114 pi_0002_0015 - 0.00150992767153 pi_0002_0016
 - 0.00135860990109 pi_0002_0017 - 0.00120736440902 pi_0002_0018
 - 0.00105619117453 pi_0002_0019 - 0.000905090176823 pi_0002_0020
 - 0.000754061395132 pi_0002_0021 - 0.000603104808678 pi_0002_0022
 - 0.000452220396695 pi_0002_0023 - 0.000301408138423 pi_0002_0024
 - 0.000150668013107 pi_0002_0025 >= 0
C_0047_cost_0003: cost_0047 >= 0
C_0047_cost_0004: cost_0047 >= 0
C_0047_cost_0005: cost_0047 >= 0
C_0047_cost_0006: cost_0047 >= 0
C_0047_cost_0007: cost_0047 >= 0
C_0047_cost_0008: cost_0047 >= 0
C_0047_cost_0009: cost_0047 >= 0
C_0047_cost_0010: cost_0047 >= 0
C_0047_cost_0011: cost_0047 >= 0
C_0047_cost_0012: cost_0047 >= 0
C_0047_cost_0013: cost_0047 >= 0
C_0047_cost_0014: cost_0047 >= 0
C_0047_cost_0015: cost_0047 >= 0
C_0047_cost_0016: cost_0047 >= 0
C_0047_cost_0017: cost_0047 >= 0
C_0047_cost_0018: cost_0047 >= 0
C_0047_cost_0019: cost_0047 >= 0
C_0047_cost_0020: cost_0047 >= 0
C_0047_cost_0021: cost_0047 >= 0
C_0047_cost_0022: cost_0047 >= 0
C_0047_cost_0023: cost_0047 >= 0
C_0047_cost_0024: cost_0047 >= 0
C_0047_cost_0025: cost_0047 >= 0
C_0047_cost_0026: cost_0047 - 0.0106666652041 pi_0026_0000 >= 0
C_0047_cost_0027: cost_0047 >= 0
C_0047_cost_0028: cost_0047 >= 0
C_0047_cost_0029: cost_0047 - 0.426666385001 pi_0029_0000 >= 0
C_0047_cost_0030: cost_0047 >= 0
C_0047_cost_0031: cost_0047 >= 0
C_0047_cost_0032: cost_0047 >= 0
C_0047_cost_0033: cost_0047 >= 0
C_0047_cost_0034: cost_0047 >= 0
C_0047_cost_0035: cost_0047 >= 0
C_0047_cost_0036: cost_0047 >= 0
C_0047_linear_0000: - act_0000 + xi_0047_0000 = 23
C_0047_linear_0001: - act_0001 + xi_0047_0001 = 24
C_0047_linear_0002: - act_0002 + xi_0047_0002 = 3234
C_0047_linear_0003: - act_0003 + xi_0047_0003 = 4
C_0047_linear_0004: - act_0004 + xi_0047_0004 = 4
C_0047_linear_0005: - act_0005 + xi_0047_0005 = 1
C_0047_linear_0006: - act_0006 + xi_0047_0006 = 0
C_0047_linear_0007: - act_0007 + xi_0047_0007 = 1
C_0047_linear_0008: - act_0008 + xi_0047_0008 = 1
C_0047_linear_0009: - act_0009 + xi_0047_0009 = 0
C_0047_linear_0010: - act_0010 + xi_0047_0010 = 0
C_0047_linear_0011: - act_0011 + xi_0047_0011 = 0
C_0047_linear_0012: - act_0012 + xi_0047_0012 = 0
C_0047_linear_0013: - act_0013 + xi_0047_0013 = 0
C_0047_linear_0014: - act_0014 + xi_0047_0014 = 0
C_0047_linear_0015: - act_0015 + xi_0047_0015 = 1
C_0047_linear_0016: - act_0016 + xi_0047_0016 = 0
C_0047_linear_0017: - act_0017 + xi_0047_0017 = 0
C_0047_linear_0018: - act_0018 + xi_0047_0018 = 0
C_0047_linear_0019: - act_0019 + xi_0047_0019 = 0
C_0047_linear_0020: - act_0020 + xi_0047_0020 = 0
C_0047_linear_0021: - act_0021 + xi_0047_0021 = 1
C_0047_linear_0022: - act_0022 + xi_0047_0022 = 0
C_0047_linear_0023: - act_0023 + xi_0047_0023 = 0
C_0047_linear_0024: - act_0024 + xi_0047_0024 = 0
C_0047_linear_0025: - act_0025 + xi_0047_0025 = 0
C_0047_linear_0026: - act_0026 + xi_0047_0026 = 0
C_0047_linear_0027: - act_0027 + xi_0047_0027 = 0
C_0047_linear_0028: - act_0028 + xi_0047_0028 = 1
C_0047_linear_0029: - act_0029 + xi_0047_0029 = 0
C_0047_linear_0030: - act_0030 + xi_0047_0030 = 0
C_0047_linear_0031: - act_0031 + xi_0047_0031 = 1
C_0047_linear_0032: - act_0032 + xi_0047_0032 = 0
C_0047_linear_0033: - act_0033 + xi_0047_0033 = 0
C_0047_linear_0034: - act_0034 + xi_0047_0034 = 1
C_0047_linear_0035: - act_0035 + xi_0047_0035 = 0
C_0047_linear_0036: - act_0036 + xi_0047_0036 = 0
C_0047_linear_0037: - act_0037 + xi_0047_0037 = 0
C_0047_linear_0038: - act_0038 + xi_0047_0038 = 0
C_0047_linear_0039: - act_0039 + xi_0047_0039 = 0
C_0047_loss_ge: - 10000 omg_0047 - 0.0111828930987 xi_0047_0000
 + 0.0316585861132 xi_0047_0001 + 0.000106039552982 xi_0047_0002
 + 0.2872356913 xi_0047_0003 + 0.013030358965 xi_0047_0004
 + 0.240120705533 xi_0047_0005 + 0.442580447937 xi_0047_0006
 - 0.375980671537 xi_0047_0007 + 0.392374151169 xi_0047_0008
 + 1.06701819784 xi_0047_0009 - 0.942756746323 xi_0047_0010
 + 0.412027349402 xi_0047_0011 + 0.570359951286 xi_0047_0012
 - 0.852905494999 xi_0047_0013 - 0.323418189169 xi_0047_0014
 + 0.252938924417 xi_0047_0015 - 0.0388599557068 xi_0047_0016
 - 0.020417849004 xi_0047_0017 - 0.119001175529 xi_0047_0018
 + 0.47399163059 xi_0047_0019 - 0.445604107063 xi_0047_0020
 - 0.0184582213876 xi_0047_0021 + 0.307589905785 xi_0047_0022
 + 0.444474821864 xi_0047_0023 - 0.187382383206 xi_0047_0024
 + 0.383302875585 xi_0047_0025 - 0.750161596334 xi_0047_0026
 - 1.33170117681 xi_0047_0027 + 0.0190658885385 xi_0047_0028
 - 0.745784276999 xi_0047_0029 - 0.516231038044 xi_0047_0030
 - 0.409255825925 xi_0047_0031 - 0.0994375517393 xi_0047_0032
 - 0.734256048841 xi_0047_0033 - 0.253933375138 xi_0047_0034
 - 0.256674950149 xi_0047_0035 - 0.732341101218 xi_0047_0036
 - 0.86707443001 xi_0047_0037 - 0.319117177314 xi_0047_0038
 + 0.0697086420108 xi_0047_0039 >= -9998.75705057
C_0047_loss_le: - 10000 omg_0047 - 0.0111828930987 xi_0047_0000
 + 0.0316585861132 xi_0047_0001 + 0.000106039552982 xi_0047_0002
 + 0.2872356913 xi_0047_0003 + 0.013030358965 xi_0047_0004
 + 0.240120705533 xi_0047_0005 + 0.442580447937 xi_0047_0006
 - 0.375980671537 xi_0047_0007 + 0.392374151169 xi_0047_0008
 + 1.06701819784 xi_0047_0009 - 0.942756746323 xi_0047_0010
 + 0.412027349402 xi_0047_0011 + 0.570359951286 xi_0047_0012
 - 0.852905494999 xi_0047_0013 - 0.323418189169 xi_0047_0014
 + 0.252938924417 xi_0047_0015 - 0.0388599557068 xi_0047_0016
 - 0.020417849004 xi_0047_0017 - 0.119001175529 xi_0047_0018
 + 0.47399163059 xi_0047_0019 - 0.445604107063 xi_0047_0020
 - 0.0184582213876 xi_0047_0021 + 0.307589905785 xi_0047_0022
 + 0.444474821864 xi_0047_0023 - 0.187382383206 xi_0047_0024
 + 0.383302875585 xi_0047_0025 - 0.750161596334 xi_0047_0026
 - 1.33170117681 xi_0047_0027 + 0.0190658885385 xi_0047_0028
 - 0.745784276999 xi_0047_0029 - 0.516231038044 xi_0047_0030
 - 0.409255825925 xi_0047_0031 - 0.0994375517393 xi_0047_0032
 - 0.734256048841 xi_0047_0033 - 0.253933375138 xi_0047_0034
 - 0.256674950149 xi_0047_0035 - 0.732341101218 xi_0047_0036
 - 0.86707443001 xi_0047_0037 - 0.319117177314 xi_0047_0038
 + 0.0697086420108 xi_0047_0039 <= 1.24294941651
C_0048_cost_0001: cost_0048 - 0.0246929068628 pi_0001_0000
 - 0.0123216428276 pi_0001_0001 >= 0
C_0048_cost_0002: cost_0048 - 0.00114313259871 pi_0002_0000
 - 0.00109913359448 pi_0002_0001 - 0.00105513714801 pi_0002_0002
 - 0.00101114326306 pi_0002_0003 - 0.00096715194341 pi_0002_0004
 - 0.000923163192888 pi_0002_0005 - 0.000879177015344 pi_0002_0006
 - 0.000835193414663 pi_0002_0007 - 0.000791212394759 pi_0002_0008
 - 0.000747233959581 pi_0002_0009 - 0.000703258113106 pi_0002_0010
 - 0.000659284859345 pi_0002_0011 - 0.000615314202338 pi_0002_0012
 - 0.000571346146158 pi_0002_0013 - 0.000527380694907 pi_0002_0014
 - 0.000483417852721 pi_0002_0015 - 0.000439457623764 pi_0002_0016
 - 0.000395500012231 pi_0002_0017 - 0.00035154502235 pi_0002_0018
 - 0.000307592658377 pi_0002_0019 - 0.0002636429246 pi_0002_0020
 - 0.000219695825338 pi_0002_0021 - 0.000175751364939 pi_0002_0022
 - 0.000131809547781 pi_0002_0023 - 8.78703782745e-05 pi_0002_0024
 - 4.39338608577e-05 pi_0002_0025 >= 0
C_0048_cost_0003: cost_0048 >= 0
C_0048_cost_0004: cost_0048 >= 0
C_0048_cost_0005: cost_0048 >= 0
C_0048_cost_0006: cost_0048 >= 0
C_0048_cost_0007: cost_0048 >= 0
C_0048_cost_0008: cost_0048 >= 0
C_0048_cost_0009: cost_0048 >= 0
C_0048_cost_0010: cost_0048 >= 0
C_0048_cost_0011: cost_0048 >= 0
C_0048_cost_0012: cost_0048 >= 0
C_0048_cost_0013: cost_0048 >= 0
C_0048_cost_0014: cost_0048 >= 0
C_0048_cost_0015: cost_0048 >= 0
C_0048_cost_0016: cost_0048 >= 0
C_0048_cost_0017: cost_0048 >= 0
C_0048_cost_0018: cost_0048 >= 0
C_0048_cost_0019: cost_0048 >= 0
C_0048_cost_0020: cost_0048 >= 0
C_0048_cost_0021: cost_0048 >= 0
C_0048_cost_0022: cost_0048 >= 0
C_0048_cost_0023: cost_0048 >= 0
C_0048_cost_0024: cost_0048 >= 0
C_0048_cost_0025: cost_0048 >= 0
C_0048_cost_0026: cost_0048 - 0.0106666652041 pi_0026_0000 >= 0
C_0048_cost_0027: cost_0048 >= 0
C_0048_cost_0028: cost_0048 >= 0
C_0048_cost_0029: cost_0048 - 0.426666385001 pi_0029_0000 >= 0
C_0048_cost_0030: cost_0048 >= 0
C_0048_cost_0031: cost_0048 >= 0
C_0048_cost_0032: cost_0048 >= 0
C_0048_cost_0033: cost_0048 >= 0
C_0048_cost_0034: cost_0048 >= 0
C_0048_cost_0035: cost_0048 >= 0
C_0048_cost_0036: cost_0048 >= 0
C_0048_linear_0000: - act_0000 + xi_0048_0000 = 23
C_0048_linear_0001: - act_0001 + xi_0048_0001 = 36
C_0048_linear_0002: - act_0002 + xi_0048_0002 = 6229
C_0048_linear_0003: - act_0003 + xi_0048_0003 = 4
C_0048_linear_0004: - act_0004 + xi_0048_0004 = 4
C_0048_linear_0005: - act_0005 + xi_0048_0005 = 2
C_0048_linear_0006: - act_0006 + xi_0048_0006 = 0
C_0048_linear_0007: - act_0007 + xi_0048_0007 = 1
C_0048_linear_0008: - act_0008 + xi_0048_0008 = 1
C_0048_linear_0009: - act_0009 + xi_0048_0009 = 0
C_0048_linear_0010: - act_0010 + xi_0048_0010 = 1
C_0048_linear_0011: - act_0011 + xi_0048_0011 = 0
C_0048_linear_0012: - act_0012 + xi_0048_0012 = 1
C_0048_linear_0013: - act_0013 + xi_0048_0013 = 0
C_0048_linear_0014: - act_0014 + xi_0048_0014 = 0
C_0048_linear_0015: - act_0015 + xi_0048_0015 = 1
C_0048_linear_0016: - act_0016 + xi_0048_0016 = 0
C_0048_linear_0017: - act_0017 + xi_0048_0017 = 0
C_0048_linear_0018: - act_0018 + xi_0048_0018 = 0
C_0048_linear_0019: - act_0019 + xi_0048_0019 = 0
C_0048_linear_0020: - act_0020 + xi_0048_0020 = 0
C_0048_linear_0021: - act_0021 + xi_0048_0021 = 1
C_0048_linear_0022: - act_0022 + xi_0048_0022 = 0
C_0048_linear_0023: - act_0023 + xi_0048_0023 = 0
C_0048_linear_0024: - act_0024 + xi_0048_0024 = 0
C_0048_linear_0025: - act_0025 + xi_0048_0025 = 0
C_0048_linear_0026: - act_0026 + xi_0048_0026 = 0
C_0048_linear_0027: - act_0027 + xi_0048_0027 = 0
C_0048_linear_0028: - act_0028 + xi_0048_0028 = 1
C_0048_linear_0029: - act_0029 + xi_0048_0029 = 0
C_0048_linear_0030: - act_0030 + xi_0048_0030 = 0
C_0048_linear_0031: - act_0031 + xi_0048_0031 = 1
C_0048_linear_0032: - act_0032 + xi_0048_0032 = 0
C_0048_linear_0033: - act_0033 + xi_0048_0033 = 0
C_0048_linear_0034: - act_0034 + xi_0048_0034 = 1
C_0048_linear_0035: - act_0035 + xi_0048_0035 = 0
C_0048_linear_0036: - act_0036 + xi_0048_0036 = 0
C_0048_linear_0037: - act_0037 + xi_0048_0037 = 0
C_0048_linear_0038: - act_0038 + xi_0048_0038 = 0
C_0048_linear_0039: - act_0039 + xi_0048_0039 = 0
C_0048_loss_ge: - 10000 omg_0048 - 0.0111828930987 xi_0048_0000
 + 0.0316585861132 xi_0048_0001 + 0.000106039552982 xi_0048_0002
 + 0.2872356913 xi_0048_0003 + 0.013030358965 xi_0048_0004
 + 0.240120705533 xi_0048_0005 + 0.442580447937 xi_0048_0006
 - 0.375980671537 xi_0048_0007 + 0.392374151169 xi_0048_0008
 + 1.06701819784 xi_0048_0009 - 0.942756746323 xi_0048_0010
 + 0.412027349402 xi_0048_0011 + 0.570359951286 xi_0048_0012
 - 0.852905494999 xi_0048_0013 - 0.323418189169 xi_0048_0014
 + 0.252938924417 xi_0048_0015 - 0.0388599557068 xi_0048_0016
 - 0.020417849004 xi_0048_0017 - 0.119001175529 xi_0048_0018
 + 0.47399163059 xi_0048_0019 - 0.445604107063 xi_0048_0020
 - 0.0184582213876 xi_0048_0021 + 0.307589905785 xi_0048_0022
 + 0.444474821864 xi_0048_0023 - 0.187382383206 xi_0048_0024
 + 0.383302875585 xi_0048_0025 - 0.750161596334 xi_0048_0026
 - 1.33170117681 xi_0048_0027 + 0.0190658885385 xi_0048_0028
 - 0.745784276999 xi_0048_0029 - 0.516231038044 xi_0048_0030
 - 0.409255825925 xi_0048_0031 - 0.0994375517393 xi_0048_0032
 - 0.734256048841 xi_0048_0033 - 0.253933375138 xi_0048_0034
 - 0.256674950149 xi_0048_0035 - 0.732341101218 xi_0048_0036
 - 0.86707443001 xi_0048_0037 - 0.319117177314 xi_0048_0038
 + 0.0697086420108 xi_0048_0039 >= -9998.75705057
C_0048_loss_le: - 10000 omg_0048 - 0.0111828930987 xi_0048_0000
 + 0.0316585861132 xi_0048_0001 + 0.000106039552982 xi_0048_0002
 + 0.2872356913 xi_0048_0003 + 0.013030358965 xi_0048_0004
 + 0.240120705533 xi_0048_0005 + 0.442580447937 xi_0048_0006
 - 0.375980671537 xi_0048_0007 + 0.392374151169 xi_0048_0008
 + 1.06701819784 xi_0048_0009 - 0.942756746323 xi_0048_0010
 + 0.412027349402 xi_0048_0011 + 0.570359951286 xi_0048_0012
 - 0.852905494999 xi_0048_0013 - 0.323418189169 xi_0048_0014
 + 0.252938924417 xi_0048_0015 - 0.0388599557068 xi_0048_0016
 - 0.020417849004 xi_0048_0017 - 0.119001175529 xi_0048_0018
 + 0.47399163059 xi_0048_0019 - 0.445604107063 xi_0048_0020
 - 0.0184582213876 xi_0048_0021 + 0.307589905785 xi_0048_0022
 + 0.444474821864 xi_0048_0023 - 0.187382383206 xi_0048_0024
 + 0.383302875585 xi_0048_0025 - 0.750161596334 xi_0048_0026
 - 1.33170117681 xi_0048_0027 + 0.0190658885385 xi_0048_0028
 - 0.745784276999 xi_0048_0029 - 0.516231038044 xi_0048_0030
 - 0.409255825925 xi_0048_0031 - 0.0994375517393 xi_0048_0032
 - 0.734256048841 xi_0048_0033 - 0.253933375138 xi_0048_0034
 - 0.256674950149 xi_0048_0035 - 0.732341101218 xi_0048_0036
 - 0.86707443001 xi_0048_0037 - 0.319117177314 xi_0048_0038
 + 0.0697086420108 xi_0048_0039 <= 1.24294941651
C_0049_cost_0001: cost_0049 - 0.0246929068628 pi_0001_0000
 - 0.0123216428276 pi_0001_0001 >= 0
C_0049_cost_0002: cost_0049 - 0.000164209009781 pi_0002_0000
 - 0.000157876003882 pi_0002_0001 - 0.000151544377206 pi_0002_0002
 - 0.000145214130085 pi_0002_0003 - 0.000138885262854 pi_0002_0004
 - 0.000132557775849 pi_0002_0005 - 0.000126231669409 pi_0002_0006
 - 0.000119906943877 pi_0002_0007 - 0.000113583599594 pi_0002_0008
 - 0.000107261636907 pi_0002_0009 - 0.000100941056162 pi_0002_0010
 - 9.46218577103e-05 pi_0002_0011 - 8.83040419024e-05 pi_0002_0012
 - 8.19876090924e-05 pi_0002_0013 - 7.5672559636e-05 pi_0002_0014
 - 6.93588938909e-05 pi_0002_0015 - 6.30466122171e-05 pi_0002_0016
 - 5.67357149764e-05 pi_0002_0017 - 5.04262025328e-05 pi_0002_0018
 - 4.41180752521e-05 pi_0002_0019 - 3.78113335021e-05 pi_0002_0020
 - 3.15059776529e-05 pi_0002_0021 - 2.52020080762e-05 pi_0002_0022
 - 1.88994251458e-05 pi_0002_0023 - 1.25982292375e-05 pi_0002_0024
 - 6.29842072897e-06 pi_0002_0025 >= 0
C_0049_cost_0003: cost_0049 >= 0
C_0049_cost_0004: cost_0049 >= 0
C_0049_cost_0005: cost_0049 >= 0
C_0049_cost_0006: cost_0049 >= 0
C_0049_cost_0007: cost_0049 >= 0
C_0049_cost_0008: cost_0049 >= 0
C_0049_cost_0009: cost_0049 >= 0
C_0049_cost_0010: cost_0049 >= 0
C_0049_cost_0011: cost_0049 >= 0
C_0049_cost_0012: cost_0049 >= 0
C_0049_cost_0013: cost_0049 >= 0
C_0049_cost_0014: cost_0049 >= 0
C_0049_cost_0015: cost_0049 >= 0
C_0049_cost_0016: cost_0049 >= 0
C_0049_cost_0017: cost_0049 >= 0
C_0049_cost_0018: cost_0049 >= 0
C_0049_cost_0019: cost_0049 >= 0
C_0049_cost_0020: cost_0049 >= 0
C_0049_cost_0021: cost_0049 >= 0
C_0049_cost_0022: cost_0049 >= 0
C_0049_cost_0023: cost_0049 >= 0
C_0049_cost_0024: cost_0049 >= 0
C_0049_cost_0025: cost_0049 >= 0
C_0049_cost_0026: cost_0049 - 0.0106666652041 pi_0026_0000 >= 0
C_0049_cost_0027: cost_0049 >= 0
C_0049_cost_0028: cost_0049 >= 0
C_0049_cost_0029: cost_0049 - 0.426666385001 pi_0029_0000 >= 0
C_0049_cost_0030: cost_0049 >= 0
C_0049_cost_0031: cost_0049 >= 0
C_0049_cost_0032: cost_0049 >= 0
C_0049_cost_0033: cost_0049 >= 0
C_0049_cost_0034: cost_0049 >= 0
C_0049_cost_0035: cost_0049 >= 0
C_0049_cost_0036: cost_0049 >= 0
C_0049_linear_0000: - act_0000 + xi_0049_0000 = 37
C_0049_linear_0001: - act_0001 + xi_0049_0001 = 36
C_0049_linear_0002: - act_0002 + xi_0049_0002 = 12389
C_0049_linear_0003: - act_0003 + xi_0049_0003 = 1
C_0049_linear_0004: - act_0004 + xi_0049_0004 = 4
C_0049_linear_0005: - act_0005 + xi_0049_0005 = 1
C_0049_linear_0006: - act_0006 + xi_0049_0006 = 0
C_0049_linear_0007: - act_0007 + xi_0049_0007 = 1
C_0049_linear_0008: - act_0008 + xi_0049_0008 = 1
C_0049_linear_0009: - act_0009 + xi_0049_0009 = 0
C_0049_linear_0010: - act_0010 + xi_0049_0010 = 0
C_0049_linear_0011: - act_0011 + xi_0049_0011 = 0
C_0049_linear_0012: - act_0012 + xi_0049_0012 = 0
C_0049_linear_0013: - act_0013 + xi_0049_0013 = 0
C_0049_linear_0014: - act_0014 + xi_0049_0014 = 0
C_0049_linear_0015: - act_0015 + xi_0049_0015 = 0
C_0049_linear_0016: - act_0016 + xi_0049_0016 = 0
C_0049_linear_0017: - act_0017 + xi_0049_0017 = 1
C_0049_linear_0018: - act_0018 + xi_0049_0018 = 0
C_0049_linear_0019: - act_0019 + xi_0049_0019 = 0
C_0049_linear_0020: - act_0020 + xi_0049_0020 = 0
C_0049_linear_0021: - act_0021 + xi_0049_0021 = 0
C_0049_linear_0022: - act_0022 + xi_0049_0022 = 0
C_0049_linear_0023: - act_0023 + xi_0049_0023 = 1
C_0049_linear_0024: - act_0024 + xi_0049_0024 = 0
C_0049_linear_0025: - act_0025 + xi_0049_0025 = 0
C_0049_linear_0026: - act_0026 + xi_0049_0026 = 0
C_0049_linear_0027: - act_0027 + xi_0049_0027 = 0
C_0049_linear_0028: - act_0028 + xi_0049_0028 = 0
C_0049_linear_0029: - act_0029 + xi_0049_0029 = 0
C_0049_linear_0030: - act_0030 + xi_0049_0030 = 1
C_0049_linear_0031: - act_0031 + xi_0049_0031 = 0
C_0049_linear_0032: - act_0032 + xi_0049_0032 = 1
C_0049_linear_0033: - act_0033 + xi_0049_0033 = 0
C_0049_linear_0034: - act_0034 + xi_0049_0034 = 1
C_0049_linear_0035: - act_0035 + xi_0049_0035 = 0
C_0049_linear_0036: - act_0036 + xi_0049_0036 = 0
C_0049_linear_0037: - act_0037 + xi_0049_0037 = 0
C_0049_linear_0038: - act_0038 + xi_0049_0038 = 1
C_0049_linear_0039: - act_0039 + xi_0049_0039 = 1
C_0049_loss_ge: - 10000 omg_0049 - 0.0111828930987 xi_0049_0000
 + 0.0316585861132 xi_0049_0001 + 0.000106039552982 xi_0049_0002
 + 0.2872356913 xi_0049_0003 + 0.013030358965 xi_0049_0004
 + 0.240120705533 xi_0049_0005 + 0.442580447937 xi_0049_0006
 - 0.375980671537 xi_0049_0007 + 0.392374151169 xi_0049_0008
 + 1.06701819784 xi_0049_0009 - 0.942756746323 xi_0049_0010
 + 0.412027349402 xi_0049_0011 + 0.570359951286 xi_0049_0012
 - 0.852905494999 xi_0049_0013 - 0.323418189169 xi_0049_0014
 + 0.252938924417 xi_0049_0015 - 0.0388599557068 xi_0049_0016
 - 0.020417849004 xi_0049_0017 - 0.119001175529 xi_0049_0018
 + 0.47399163059 xi_0049_0019 - 0.445604107063 xi_0049_0020
 - 0.0184582213876 xi_0049_0021 + 0.307589905785 xi_0049_0022
 + 0.444474821864 xi_0049_0023 - 0.187382383206 xi_0049_0024
 + 0.383302875585 xi_0049_0025 - 0.750161596334 xi_0049_0026
 - 1.33170117681 xi_0049_0027 + 0.0190658885385 xi_0049_0028
 - 0.745784276999 xi_0049_0029 - 0.516231038044 xi_0049_0030
 - 0.409255825925 xi_0049_0031 - 0.0994375517393 xi_0049_0032
 - 0.734256048841 xi_0049_0033 - 0.253933375138 xi_0049_0034
 - 0.256674950149 xi_0049_0035 - 0.732341101218 xi_0049_0036
 - 0.86707443001 xi_0049_0037 - 0.319117177314 xi_0049_0038
 + 0.0697086420108 xi_0049_0039 >= -9998.75705057
C_0049_loss_le: - 10000 omg_0049 - 0.0111828930987 xi_0049_0000
 + 0.0316585861132 xi_0049_0001 + 0.000106039552982 xi_0049_0002
 + 0.2872356913 xi_0049_0003 + 0.013030358965 xi_0049_0004
 + 0.240120705533 xi_0049_0005 + 0.442580447937 xi_0049_0006
 - 0.375980671537 xi_0049_0007 + 0.392374151169 xi_0049_0008
 + 1.06701819784 xi_0049_0009 - 0.942756746323 xi_0049_0010
 + 0.412027349402 xi_0049_0011 + 0.570359951286 xi_0049_0012
 - 0.852905494999 xi_0049_0013 - 0.323418189169 xi_0049_0014
 + 0.252938924417 xi_0049_0015 - 0.0388599557068 xi_0049_0016
 - 0.020417849004 xi_0049_0017 - 0.119001175529 xi_0049_0018
 + 0.47399163059 xi_0049_0019 - 0.445604107063 xi_0049_0020
 - 0.0184582213876 xi_0049_0021 + 0.307589905785 xi_0049_0022
 + 0.444474821864 xi_0049_0023 - 0.187382383206 xi_0049_0024
 + 0.383302875585 xi_0049_0025 - 0.750161596334 xi_0049_0026
 - 1.33170117681 xi_0049_0027 + 0.0190658885385 xi_0049_0028
 - 0.745784276999 xi_0049_0029 - 0.516231038044 xi_0049_0030
 - 0.409255825925 xi_0049_0031 - 0.0994375517393 xi_0049_0032
 - 0.734256048841 xi_0049_0033 - 0.253933375138 xi_0049_0034
 - 0.256674950149 xi_0049_0035 - 0.732341101218 xi_0049_0036
 - 0.86707443001 xi_0049_0037 - 0.319117177314 xi_0049_0038
 + 0.0697086420108 xi_0049_0039 <= 1.24294941651
C_0050_cost_0001: cost_0050 - 0.0639671434312 pi_0001_0000
 - 0.0315831062354 pi_0001_0001 >= 0
C_0050_cost_0002: cost_0050 - 0.00159173522905 pi_0002_0000
 - 0.00153009766754 pi_0002_0001 - 0.00146849375163 pi_0002_0002
 - 0.00140692344544 pi_0002_0003 - 0.00134538671309 pi_0002_0004
 - 0.00128388351868 pi_0002_0005 - 0.00122241382629 pi_0002_0006
 - 0.00116097760001 pi_0002_0007 - 0.00109957480391 pi_0002_0008
 - 0.00103820540203 pi_0002_0009 - 0.000976869358422 pi_0002_0010
 - 0.000915566637115 pi_0002_0011 - 0.000854297202129 pi_0002_0012
 - 0.000793061017472 pi_0002_0013 - 0.000731858047141 pi_0002_0014
 - 0.000670688255121 pi_0002_0015 - 0.000609551605386 pi_0002_0016
 - 0.000548448061899 pi_0002_0017 - 0.000487377588612 pi_0002_0018
 - 0.000426340149464 pi_0002_0019 - 0.000365335708385 pi_0002_0020
 - 0.000304364229293 pi_0002_0021 - 0.000243425676095 pi_0002_0022
 - 0.000182520012687 pi_0002_0023 - 0.000121647202954 pi_0002_0024
 - 6.08072107704e-05 pi_0002_0025 >= 0
C_0050_cost_0003: cost_0050 >= 0
C_0050_cost_0004: cost_0050 >= 0
C_0050_cost_0005: cost_0050 >= 0
C_0050_cost_0006: cost_0050 >= 0
C_0050_cost_0007: cost_0050 >= 0
C_0050_cost_0008: cost_0050 >= 0
C_0050_cost_0009: cost_0050 >= 0
C_0050_cost_0010: cost_0050 >= 0
C_0050_cost_0011: cost_0050 >= 0
C_0050_cost_0012: cost_0050 >= 0
C_0050_cost_0013: cost_0050 >= 0
C_0050_cost_0014: cost_0050 >= 0
C_0050_cost_0015: cost_0050 >= 0
C_0050_cost_0016: cost_0050 >= 0
C_0050_cost_0017: cost_0050 >= 0
C_0050_cost_0018: cost_0050 >= 0
C_0050_cost_0019: cost_0050 >= 0
C_0050_cost_0020: cost_0050 >= 0
C_0050_cost_0021: cost_0050 >= 0
C_0050_cost_0022: cost_0050 >= 0
C_0050_cost_0023: cost_0050 >= 0
C_0050_cost_0024: cost_0050 >= 0
C_0050_cost_0025: cost_0050 >= 0
C_0050_cost_0026: cost_0050 - 0.0106666652041 pi_0026_0000 >= 0
C_0050_cost_0027: cost_0050 >= 0
C_0050_cost_0028: cost_0050 >= 0
C_0050_cost_0029: cost_0050 - 0.426666385001 pi_0029_0000 >= 0
C_0050_cost_0030: cost_0050 >= 0
C_0050_cost_0031: cost_0050 >= 0
C_0050_cost_0032: cost_0050 >= 0
C_0050_cost_0033: cost_0050 >= 0
C_0050_cost_0034: cost_0050 >= 0
C_0050_cost_0035: cost_0050 >= 0
C_0050_cost_0036: cost_0050 >= 0
C_0050_linear_0000: - act_0000 + xi_0050_0000 = 53
C_0050_linear_0001: - act_0001 + xi_0050_0001 = 24
C_0050_linear_0002: - act_0002 + xi_0050_0002 = 4870
C_0050_linear_0003: - act_0003 + xi_0050_0003 = 3
C_0050_linear_0004: - act_0004 + xi_0050_0004 = 4
C_0050_linear_0005: - act_0005 + xi_0050_0005 = 2
C_0050_linear_0006: - act_0006 + xi_0050_0006 = 1
C_0050_linear_0007: - act_0007 + xi_0050_0007 = 0
C_0050_linear_0008: - act_0008 + xi_0050_0008 = 0
C_0050_linear_0009: - act_0009 + xi_0050_0009 = 0
C_0050_linear_0010: - act_0010 + xi_0050_0010 = 0
C_0050_linear_0011: - act_0011 + xi_0050_0011 = 0
C_0050_linear_0012: - act_0012 + xi_0050_0012 = 0
C_0050_linear_0013: - act_0013 + xi_0050_0013 = 0
C_0050_linear_0014: - act_0014 + xi_0050_0014 = 0
C_0050_linear_0015: - act_0015 + xi_0050_0015 = 0
C_0050_linear_0016: - act_0016 + xi_0050_0016 = 0
C_0050_linear_0017: - act_0017 + xi_0050_0017 = 1
C_0050_linear_0018: - act_0018 + xi_0050_0018 = 0
C_0050_linear_0019: - act_0019 + xi_0050_0019 = 0
C_0050_linear_0020: - act_0020 + xi_0050_0020 = 0
C_0050_linear_0021: - act_0021 + xi_0050_0021 = 0
C_0050_linear_0022: - act_0022 + xi_0050_0022 = 0
C_0050_linear_0023: - act_0023 + xi_0050_0023 = 1
C_0050_linear_0024: - act_0024 + xi_0050_0024 = 0
C_0050_linear_0025: - act_0025 + xi_0050_0025 = 0
C_0050_linear_0026: - act_0026 + xi_0050_0026 = 0
C_0050_linear_0027: - act_0027 + xi_0050_0027 = 0
C_0050_linear_0028: - act_0028 + xi_0050_0028 = 0
C_0050_linear_0029: - act_0029 + xi_0050_0029 = 0
C_0050_linear_0030: - act_0030 + xi_0050_0030 = 1
C_0050_linear_0031: - act_0031 + xi_0050_0031 = 1
C_0050_linear_0032: - act_0032 + xi_0050_0032 = 0
C_0050_linear_0033: - act_0033 + xi_0050_0033 = 0
C_0050_linear_0034: - act_0034 + xi_0050_0034 = 1
C_0050_linear_0035: - act_0035 + xi_0050_0035 = 0
C_0050_linear_0036: - act_0036 + xi_0050_0036 = 0
C_0050_linear_0037: - act_0037 + xi_0050_0037 = 0
C_0050_linear_0038: - act_0038 + xi_0050_0038 = 1
C_0050_linear_0039: - act_0039 + xi_0050_0039 = 1
C_0050_loss_ge: - 10000 omg_0050 - 0.0111828930987 xi_0050_0000
 + 0.0316585861132 xi_0050_0001 + 0.000106039552982 xi_0050_0002
 + 0.2872356913 xi_0050_0003 + 0.013030358965 xi_0050_0004
 + 0.240120705533 xi_0050_0005 + 0.442580447937 xi_0050_0006
 - 0.375980671537 xi_0050_0007 + 0.392374151169 xi_0050_0008
 + 1.06701819784 xi_0050_0009 - 0.942756746323 xi_0050_0010
 + 0.412027349402 xi_0050_0011 + 0.570359951286 xi_0050_0012
 - 0.852905494999 xi_0050_0013 - 0.323418189169 xi_0050_0014
 + 0.252938924417 xi_0050_0015 - 0.0388599557068 xi_0050_0016
 - 0.020417849004 xi_0050_0017 - 0.119001175529 xi_0050_0018
 + 0.47399163059 xi_0050_0019 - 0.445604107063 xi_0050_0020
 - 0.0184582213876 xi_0050_0021 + 0.307589905785 xi_0050_0022
 + 0.444474821864 xi_0050_0023 - 0.187382383206 xi_0050_0024
 + 0.383302875585 xi_0050_0025 - 0.750161596334 xi_0050_0026
 - 1.33170117681 xi_0050_0027 + 0.0190658885385 xi_0050_0028
 - 0.745784276999 xi_0050_0029 - 0.516231038044 xi_0050_0030
 - 0.409255825925 xi_0050_0031 - 0.0994375517393 xi_0050_0032
 - 0.734256048841 xi_0050_0033 - 0.253933375138 xi_0050_0034
 - 0.256674950149 xi_0050_0035 - 0.732341101218 xi_0050_0036
 - 0.86707443001 xi_0050_0037 - 0.319117177314 xi_0050_0038
 + 0.0697086420108 xi_0050_0039 >= -9998.75705057
C_0050_loss_le: - 10000 omg_0050 - 0.0111828930987 xi_0050_0000
 + 0.0316585861132 xi_0050_0001 + 0.000106039552982 xi_0050_0002
 + 0.2872356913 xi_0050_0003 + 0.013030358965 xi_0050_0004
 + 0.240120705533 xi_0050_0005 + 0.442580447937 xi_0050_0006
 - 0.375980671537 xi_0050_0007 + 0.392374151169 xi_0050_0008
 + 1.06701819784 xi_0050_0009 - 0.942756746323 xi_0050_0010
 + 0.412027349402 xi_0050_0011 + 0.570359951286 xi_0050_0012
 - 0.852905494999 xi_0050_0013 - 0.323418189169 xi_0050_0014
 + 0.252938924417 xi_0050_0015 - 0.0388599557068 xi_0050_0016
 - 0.020417849004 xi_0050_0017 - 0.119001175529 xi_0050_0018
 + 0.47399163059 xi_0050_0019 - 0.445604107063 xi_0050_0020
 - 0.0184582213876 xi_0050_0021 + 0.307589905785 xi_0050_0022
 + 0.444474821864 xi_0050_0023 - 0.187382383206 xi_0050_0024
 + 0.383302875585 xi_0050_0025 - 0.750161596334 xi_0050_0026
 - 1.33170117681 xi_0050_0027 + 0.0190658885385 xi_0050_0028
 - 0.745784276999 xi_0050_0029 - 0.516231038044 xi_0050_0030
 - 0.409255825925 xi_0050_0031 - 0.0994375517393 xi_0050_0032
 - 0.734256048841 xi_0050_0033 - 0.253933375138 xi_0050_0034
 - 0.256674950149 xi_0050_0035 - 0.732341101218 xi_0050_0036
 - 0.86707443001 xi_0050_0037 - 0.319117177314 xi_0050_0038
 + 0.0697086420108 xi_0050_0039 <= 1.24294941651
C_0051_cost_0001: cost_0051 - 0.0246929068628 pi_0001_0000
 - 0.0123216428276 pi_0001_0001 >= 0
C_0051_cost_0002: cost_0051 - 0.000998121274122 pi_0002_0000
 - 0.000959610713946 pi_0002_0001 - 0.000921109813511 pi_0002_0002
 - 0.000882618578211 pi_0002_0003 - 0.000844137013432 pi_0002_0004
 - 0.000805665124549 pi_0002_0005 - 0.000767202916925 pi_0002_0006
 - 0.000728750395915 pi_0002_0007 - 0.000690307566864 pi_0002_0008
 - 0.000651874435103 pi_0002_0009 - 0.000613451005959 pi_0002_0010
 - 0.000575037284743 pi_0002_0011 - 0.000536633276758 pi_0002_0012
 - 0.000498238987298 pi_0002_0013 - 0.000459854421646 pi_0002_0014
 - 0.000421479585075 pi_0002_0015 - 0.000383114482846 pi_0002_0016
 - 0.000344759120213 pi_0002_0017 - 0.000306413502418 pi_0002_0018
 - 0.000268077634693 pi_0002_0019 - 0.00022975152226 pi_0002_0020
 - 0.000191435170333 pi_0002_0021 - 0.000153128584113 pi_0002_0022
 - 0.000114831768792 pi_0002_0023 - 7.65447295537e-05 pi_0002_0024
 - 3.82674715687e-05 pi_0002_0025 >= 0
C_0051_cost_0003: cost_0051 >= 0
C_0051_cost_0004: cost_0051 >= 0
C_0051_cost_0005: cost_0051 >= 0
C_0051_cost_0006: cost_0051 >= 0
C_0051_cost_0007: cost_0051 >= 0
C_0051_cost_0008: cost_0051 >= 0
C_0051_cost_0009: cost_0051 >= 0
C_0051_cost_0010: cost_0051 >= 0
C_0051_cost_0011: cost_0051 >= 0
C_0051_cost_0012: cost_0051 >= 0
C_0051_cost_0013: cost_0051 >= 0
C_0051_cost_0014: cost_0051 >= 0
C_0051_cost_0015: cost_0051 >= 0
C_0051_cost_0016: cost_0051 >= 0
C_0051_cost_0017: cost_0051 >= 0
C_0051_cost_0018: cost_0051 >= 0
C_0051_cost_0019: cost_0051 >= 0
C_0051_cost_0020: cost_0051 >= 0
C_0051_cost_0021: cost_0051 >= 0
C_0051_cost_0022: cost_0051 >= 0
C_0051_cost_0023: cost_0051 >= 0
C_0051_cost_0024: cost_0051 >= 0
C_0051_cost_0025: cost_0051 >= 0
C_0051_cost_0026: cost_0051 - 0.0106666652041 pi_0026_0000 >= 0
C_0051_cost_0027: cost_0051 >= 0
C_0051_cost_0028: cost_0051 >= 0
C_0051_cost_0029: cost_0051 - 0.426666385001 pi_0029_0000 >= 0
C_0051_cost_0030: cost_0051 >= 0
C_0051_cost_0031: cost_0051 >= 0
C_0051_cost_0032: cost_0051 >= 0
C_0051_cost_0033: cost_0051 >= 0
C_0051_cost_0034: cost_0051 >= 0
C_0051_cost_0035: cost_0051 >= 0
C_0051_cost_0036: cost_0051 >= 0
C_0051_linear_0000: - act_0000 + xi_0051_0000 = 23
C_0051_linear_0001: - act_0001 + xi_0051_0001 = 36
C_0051_linear_0002: - act_0002 + xi_0051_0002 = 7127
C_0051_linear_0003: - act_0003 + xi_0051_0003 = 2
C_0051_linear_0004: - act_0004 + xi_0051_0004 = 4
C_0051_linear_0005: - act_0005 + xi_0051_0005 = 2
C_0051_linear_0006: - act_0006 + xi_0051_0006 = 0
C_0051_linear_0007: - act_0007 + xi_0051_0007 = 1
C_0051_linear_0008: - act_0008 + xi_0051_0008 = 1
C_0051_linear_0009: - act_0009 + xi_0051_0009 = 0
C_0051_linear_0010: - act_0010 + xi_0051_0010 = 1
C_0051_linear_0011: - act_0011 + xi_0051_0011 = 0
C_0051_linear_0012: - act_0012 + xi_0051_0012 = 0
C_0051_linear_0013: - act_0013 + xi_0051_0013 = 0
C_0051_linear_0014: - act_0014 + xi_0051_0014 = 0
C_0051_linear_0015: - act_0015 + xi_0051_0015 = 1
C_0051_linear_0016: - act_0016 + xi_0051_0016 = 0
C_0051_linear_0017: - act_0017 + xi_0051_0017 = 1
C_0051_linear_0018: - act_0018 + xi_0051_0018 = 0
C_0051_linear_0019: - act_0019 + xi_0051_0019 = 0
C_0051_linear_0020: - act_0020 + xi_0051_0020 = 0
C_0051_linear_0021: - act_0021 + xi_0051_0021 = 1
C_0051_linear_0022: - act_0022 + xi_0051_0022 = 0
C_0051_linear_0023: - act_0023 + xi_0051_0023 = 0
C_0051_linear_0024: - act_0024 + xi_0051_0024 = 0
C_0051_linear_0025: - act_0025 + xi_0051_0025 = 0
C_0051_linear_0026: - act_0026 + xi_0051_0026 = 0
C_0051_linear_0027: - act_0027 + xi_0051_0027 = 0
C_0051_linear_0028: - act_0028 + xi_0051_0028 = 1
C_0051_linear_0029: - act_0029 + xi_0051_0029 = 0
C_0051_linear_0030: - act_0030 + xi_0051_0030 = 0
C_0051_linear_0031: - act_0031 + xi_0051_0031 = 1
C_0051_linear_0032: - act_0032 + xi_0051_0032 = 0
C_0051_linear_0033: - act_0033 + xi_0051_0033 = 0
C_0051_linear_0034: - act_0034 + xi_0051_0034 = 1
C_0051_linear_0035: - act_0035 + xi_0051_0035 = 0
C_0051_linear_0036: - act_0036 + xi_0051_0036 = 0
C_0051_linear_0037: - act_0037 + xi_0051_0037 = 0
C_0051_linear_0038: - act_0038 + xi_0051_0038 = 0
C_0051_linear_0039: - act_0039 + xi_0051_0039 = 0
C_0051_loss_ge: - 10000 omg_0051 - 0.0111828930987 xi_0051_0000
 + 0.0316585861132 xi_0051_0001 + 0.000106039552982 xi_0051_0002
 + 0.2872356913 xi_0051_0003 + 0.013030358965 xi_0051_0004
 + 0.240120705533 xi_0051_0005 + 0.442580447937 xi_0051_0006
 - 0.375980671537 xi_0051_0007 + 0.392374151169 xi_0051_0008
 + 1.06701819784 xi_0051_0009 - 0.942756746323 xi_0051_0010
 + 0.412027349402 xi_0051_0011 + 0.570359951286 xi_0051_0012
 - 0.852905494999 xi_0051_0013 - 0.323418189169 xi_0051_0014
 + 0.252938924417 xi_0051_0015 - 0.0388599557068 xi_0051_0016
 - 0.020417849004 xi_0051_0017 - 0.119001175529 xi_0051_0018
 + 0.47399163059 xi_0051_0019 - 0.445604107063 xi_0051_0020
 - 0.0184582213876 xi_0051_0021 + 0.307589905785 xi_0051_0022
 + 0.444474821864 xi_0051_0023 - 0.187382383206 xi_0051_0024
 + 0.383302875585 xi_0051_0025 - 0.750161596334 xi_0051_0026
 - 1.33170117681 xi_0051_0027 + 0.0190658885385 xi_0051_0028
 - 0.745784276999 xi_0051_0029 - 0.516231038044 xi_0051_0030
 - 0.409255825925 xi_0051_0031 - 0.0994375517393 xi_0051_0032
 - 0.734256048841 xi_0051_0033 - 0.253933375138 xi_0051_0034
 - 0.256674950149 xi_0051_0035 - 0.732341101218 xi_0051_0036
 - 0.86707443001 xi_0051_0037 - 0.319117177314 xi_0051_0038
 + 0.0697086420108 xi_0051_0039 >= -9998.75705057
C_0051_loss_le: - 10000 omg_0051 - 0.0111828930987 xi_0051_0000
 + 0.0316585861132 xi_0051_0001 + 0.000106039552982 xi_0051_0002
 + 0.2872356913 xi_0051_0003 + 0.013030358965 xi_0051_0004
 + 0.240120705533 xi_0051_0005 + 0.442580447937 xi_0051_0006
 - 0.375980671537 xi_0051_0007 + 0.392374151169 xi_0051_0008
 + 1.06701819784 xi_0051_0009 - 0.942756746323 xi_0051_0010
 + 0.412027349402 xi_0051_0011 + 0.570359951286 xi_0051_0012
 - 0.852905494999 xi_0051_0013 - 0.323418189169 xi_0051_0014
 + 0.252938924417 xi_0051_0015 - 0.0388599557068 xi_0051_0016
 - 0.020417849004 xi_0051_0017 - 0.119001175529 xi_0051_0018
 + 0.47399163059 xi_0051_0019 - 0.445604107063 xi_0051_0020
 - 0.0184582213876 xi_0051_0021 + 0.307589905785 xi_0051_0022
 + 0.444474821864 xi_0051_0023 - 0.187382383206 xi_0051_0024
 + 0.383302875585 xi_0051_0025 - 0.750161596334 xi_0051_0026
 - 1.33170117681 xi_0051_0027 + 0.0190658885385 xi_0051_0028
 - 0.745784276999 xi_0051_0029 - 0.516231038044 xi_0051_0030
 - 0.409255825925 xi_0051_0031 - 0.0994375517393 xi_0051_0032
 - 0.734256048841 xi_0051_0033 - 0.253933375138 xi_0051_0034
 - 0.256674950149 xi_0051_0035 - 0.732341101218 xi_0051_0036
 - 0.86707443001 xi_0051_0037 - 0.319117177314 xi_0051_0038
 + 0.0697086420108 xi_0051_0039 <= 1.24294941651
C_0052_cost_0001: cost_0052 - 0.0639671434312 pi_0001_0000
 - 0.0315831062354 pi_0001_0001 >= 0
C_0052_cost_0002: cost_0052 - 0.00421353709348 pi_0002_0000
 - 0.00405053488495 pi_0002_0001 - 0.00388760829364 pi_0002_0002
 - 0.0037247572983 pi_0002_0003 - 0.00356198187768 pi_0002_0004
 - 0.00339928201053 pi_0002_0005 - 0.0032366576756 pi_0002_0006
 - 0.00307410885163 pi_0002_0007 - 0.00291163551737 pi_0002_0008
 - 0.00274923765155 pi_0002_0009 - 0.00258691523292 pi_0002_0010
 - 0.00242466824022 pi_0002_0011 - 0.00226249665218 pi_0002_0012
 - 0.00210040044755 pi_0002_0013 - 0.00193837960505 pi_0002_0014
 - 0.00177643410342 pi_0002_0015 - 0.0016145639214 pi_0002_0016
 - 0.00145276903771 pi_0002_0017 - 0.00129104943108 pi_0002_0018
 - 0.00112940508026 pi_0002_0019 - 0.00096783596396 pi_0002_0020
 - 0.000806342060917 pi_0002_0021 - 0.000644923349857 pi_0002_0022
 - 0.000483579809508 pi_0002_0023 - 0.000322311418598 pi_0002_0024
 - 0.000161118155853 pi_0002_0025 >= 0
C_0052_cost_0003: cost_0052 >= 0
C_0052_cost_0004: cost_0052 >= 0
C_0052_cost_0005: cost_0052 >= 0
C_0052_cost_0006: cost_0052 >= 0
C_0052_cost_0007: cost_0052 >= 0
C_0052_cost_0008: cost_0052 >= 0
C_0052_cost_0009: cost_0052 >= 0
C_0052_cost_0010: cost_0052 >= 0
C_0052_cost_0011: cost_0052 >= 0
C_0052_cost_0012: cost_0052 >= 0
C_0052_cost_0013: cost_0052 >= 0
C_0052_cost_0014: cost_0052 >= 0
C_0052_cost_0015: cost_0052 >= 0
C_0052_cost_0016: cost_0052 >= 0
C_0052_cost_0017: cost_0052 >= 0
C_0052_cost_0018: cost_0052 >= 0
C_0052_cost_0019: cost_0052 >= 0
C_0052_cost_0020: cost_0052 >= 0
C_0052_cost_0021: cost_0052 >= 0
C_0052_cost_0022: cost_0052 >= 0
C_0052_cost_0023: cost_0052 >= 0
C_0052_cost_0024: cost_0052 >= 0
C_0052_cost_0025: cost_0052 >= 0
C_0052_cost_0026: cost_0052 - 0.0106666652041 pi_0026_0000 >= 0
C_0052_cost_0027: cost_0052 >= 0
C_0052_cost_0028: cost_0052 >= 0
C_0052_cost_0029: cost_0052 - 0.426666385001 pi_0029_0000 >= 0
C_0052_cost_0030: cost_0052 >= 0
C_0052_cost_0031: cost_0052 >= 0
C_0052_cost_0032: cost_0052 >= 0
C_0052_cost_0033: cost_0052 >= 0
C_0052_cost_0034: cost_0052 >= 0
C_0052_cost_0035: cost_0052 >= 0
C_0052_cost_0036: cost_0052 >= 0
C_0052_linear_0000: - act_0000 + xi_0052_0000 = 22
C_0052_linear_0001: - act_0001 + xi_0052_0001 = 24
C_0052_linear_0002: - act_0002 + xi_0052_0002 = 3092
C_0052_linear_0003: - act_0003 + xi_0052_0003 = 3
C_0052_linear_0004: - act_0004 + xi_0052_0004 = 2
C_0052_linear_0005: - act_0005 + xi_0052_0005 = 1
C_0052_linear_0006: - act_0006 + xi_0052_0006 = 0
C_0052_linear_0007: - act_0007 + xi_0052_0007 = 1
C_0052_linear_0008: - act_0008 + xi_0052_0008 = 1
C_0052_linear_0009: - act_0009 + xi_0052_0009 = 0
C_0052_linear_0010: - act_0010 + xi_0052_0010 = 0
C_0052_linear_0011: - act_0011 + xi_0052_0011 = 0
C_0052_linear_0012: - act_0012 + xi_0052_0012 = 0
C_0052_linear_0013: - act_0013 + xi_0052_0013 = 0
C_0052_linear_0014: - act_0014 + xi_0052_0014 = 0
C_0052_linear_0015: - act_0015 + xi_0052_0015 = 1
C_0052_linear_0016: - act_0016 + xi_0052_0016 = 0
C_0052_linear_0017: - act_0017 + xi_0052_0017 = 1
C_0052_linear_0018: - act_0018 + xi_0052_0018 = 0
C_0052_linear_0019: - act_0019 + xi_0052_0019 = 0
C_0052_linear_0020: - act_0020 + xi_0052_0020 = 1
C_0052_linear_0021: - act_0021 + xi_0052_0021 = 0
C_0052_linear_0022: - act_0022 + xi_0052_0022 = 0
C_0052_linear_0023: - act_0023 + xi_0052_0023 = 0
C_0052_linear_0024: - act_0024 + xi_0052_0024 = 0
C_0052_linear_0025: - act_0025 + xi_0052_0025 = 0
C_0052_linear_0026: - act_0026 + xi_0052_0026 = 0
C_0052_linear_0027: - act_0027 + xi_0052_0027 = 0
C_0052_linear_0028: - act_0028 + xi_0052_0028 = 1
C_0052_linear_0029: - act_0029 + xi_0052_0029 = 0
C_0052_linear_0030: - act_0030 + xi_0052_0030 = 0
C_0052_linear_0031: - act_0031 + xi_0052_0031 = 0
C_0052_linear_0032: - act_0032 + xi_0052_0032 = 1
C_0052_linear_0033: - act_0033 + xi_0052_0033 = 0
C_0052_linear_0034: - act_0034 + xi_0052_0034 = 0
C_0052_linear_0035: - act_0035 + xi_0052_0035 = 1
C_0052_linear_0036: - act_0036 + xi_0052_0036 = 0
C_0052_linear_0037: - act_0037 + xi_0052_0037 = 0
C_0052_linear_0038: - act_0038 + xi_0052_0038 = 0
C_0052_linear_0039: - act_0039 + xi_0052_0039 = 1
C_0052_loss_ge: - 10000 omg_0052 - 0.0111828930987 xi_0052_0000
 + 0.0316585861132 xi_0052_0001 + 0.000106039552982 xi_0052_0002
 + 0.2872356913 xi_0052_0003 + 0.013030358965 xi_0052_0004
 + 0.240120705533 xi_0052_0005 + 0.442580447937 xi_0052_0006
 - 0.375980671537 xi_0052_0007 + 0.392374151169 xi_0052_0008
 + 1.06701819784 xi_0052_0009 - 0.942756746323 xi_0052_0010
 + 0.412027349402 xi_0052_0011 + 0.570359951286 xi_0052_0012
 - 0.852905494999 xi_0052_0013 - 0.323418189169 xi_0052_0014
 + 0.252938924417 xi_0052_0015 - 0.0388599557068 xi_0052_0016
 - 0.020417849004 xi_0052_0017 - 0.119001175529 xi_0052_0018
 + 0.47399163059 xi_0052_0019 - 0.445604107063 xi_0052_0020
 - 0.0184582213876 xi_0052_0021 + 0.307589905785 xi_0052_0022
 + 0.444474821864 xi_0052_0023 - 0.187382383206 xi_0052_0024
 + 0.383302875585 xi_0052_0025 - 0.750161596334 xi_0052_0026
 - 1.33170117681 xi_0052_0027 + 0.0190658885385 xi_0052_0028
 - 0.745784276999 xi_0052_0029 - 0.516231038044 xi_0052_0030
 - 0.409255825925 xi_0052_0031 - 0.0994375517393 xi_0052_0032
 - 0.734256048841 xi_0052_0033 - 0.253933375138 xi_0052_0034
 - 0.256674950149 xi_0052_0035 - 0.732341101218 xi_0052_0036
 - 0.86707443001 xi_0052_0037 - 0.319117177314 xi_0052_0038
 + 0.0697086420108 xi_0052_0039 >= -9998.75705057
C_0052_loss_le: - 10000 omg_0052 - 0.0111828930987 xi_0052_0000
 + 0.0316585861132 xi_0052_0001 + 0.000106039552982 xi_0052_0002
 + 0.2872356913 xi_0052_0003 + 0.013030358965 xi_0052_0004
 + 0.240120705533 xi_0052_0005 + 0.442580447937 xi_0052_0006
 - 0.375980671537 xi_0052_0007 + 0.392374151169 xi_0052_0008
 + 1.06701819784 xi_0052_0009 - 0.942756746323 xi_0052_0010
 + 0.412027349402 xi_0052_0011 + 0.570359951286 xi_0052_0012
 - 0.852905494999 xi_0052_0013 - 0.323418189169 xi_0052_0014
 + 0.252938924417 xi_0052_0015 - 0.0388599557068 xi_0052_0016
 - 0.020417849004 xi_0052_0017 - 0.119001175529 xi_0052_0018
 + 0.47399163059 xi_0052_0019 - 0.445604107063 xi_0052_0020
 - 0.0184582213876 xi_0052_0021 + 0.307589905785 xi_0052_0022
 + 0.444474821864 xi_0052_0023 - 0.187382383206 xi_0052_0024
 + 0.383302875585 xi_0052_0025 - 0.750161596334 xi_0052_0026
 - 1.33170117681 xi_0052_0027 + 0.0190658885385 xi_0052_0028
 - 0.745784276999 xi_0052_0029 - 0.516231038044 xi_0052_0030
 - 0.409255825925 xi_0052_0031 - 0.0994375517393 xi_0052_0032
 - 0.734256048841 xi_0052_0033 - 0.253933375138 xi_0052_0034
 - 0.256674950149 xi_0052_0035 - 0.732341101218 xi_0052_0036
 - 0.86707443001 xi_0052_0037 - 0.319117177314 xi_0052_0038
 + 0.0697086420108 xi_0052_0039 <= 1.24294941651
C_0053_cost_0001: cost_0053 - 0.0639671434312 pi_0001_0000
 - 0.0315831062354 pi_0001_0001 >= 0
C_0053_cost_0002: cost_0053 - 0.00498249017745 pi_0002_0000
 - 0.00478982747419 pi_0002_0001 - 0.00459724714013 pi_0002_0002
 - 0.00440474916412 pi_0002_0003 - 0.00421233353498 pi_0002_0004
 - 0.00402000024141 pi_0002_0005 - 0.00382774927211 pi_0002_0006
 - 0.00363558061568 pi_0002_0007 - 0.00344349426067 pi_0002_0008
 - 0.00325149019556 pi_0002_0009 - 0.00305956840879 pi_0002_0010
 - 0.00286772888872 pi_0002_0011 - 0.00267597162366 pi_0002_0012
 - 0.00248429660186 pi_0002_0013 - 0.00229270381151 pi_0002_0014
 - 0.00210119324073 pi_0002_0015 - 0.00190976487759 pi_0002_0016
 - 0.00171841871011 pi_0002_0017 - 0.00152715472623 pi_0002_0018
 - 0.00133597291385 pi_0002_0019 - 0.0011448732608 pi_0002_0020
 - 0.000953855754868 pi_0002_0021 - 0.000762920383761 pi_0002_0022
 - 0.000572067135145 pi_0002_0023 - 0.000381295996624 pi_0002_0024
 - 0.000190606955746 pi_0002_0025 >= 0
C_0053_cost_0003: cost_0053 >= 0
C_0053_cost_0004: cost_0053 >= 0
C_0053_cost_0005: cost_0053 >= 0
C_0053_cost_0006: cost_0053 >= 0
C_0053_cost_0007: cost_0053 >= 0
C_0053_cost_0008: cost_0053 >= 0
C_0053_cost_0009: cost_0053 >= 0
C_0053_cost_0010: cost_0053 >= 0
C_0053_cost_0011: cost_0053 >= 0
C_0053_cost_0012: cost_0053 >= 0
C_0053_cost_0013: cost_0053 >= 0
C_0053_cost_0014: cost_0053 >= 0
C_0053_cost_0015: cost_0053 >= 0
C_0053_cost_0016: cost_0053 >= 0
C_0053_cost_0017: cost_0053 >= 0
C_0053_cost_0018: cost_0053 >= 0
C_0053_cost_0019: cost_0053 >= 0
C_0053_cost_0020: cost_0053 >= 0
C_0053_cost_0021: cost_0053 >= 0
C_0053_cost_0022: cost_0053 >= 0
C_0053_cost_0023: cost_0053 >= 0
C_0053_cost_0024: cost_0053 >= 0
C_0053_cost_0025: cost_0053 >= 0
C_0053_cost_0026: cost_0053 - 0.0106666652041 pi_0026_0000 >= 0
C_0053_cost_0027: cost_0053 >= 0
C_0053_cost_0028: cost_0053 >= 0
C_0053_cost_0029: cost_0053 - 0.426666385001 pi_0029_0000 >= 0
C_0053_cost_0030: cost_0053 >= 0
C_0053_cost_0031: cost_0053 >= 0
C_0053_cost_0032: cost_0053 >= 0
C_0053_cost_0033: cost_0053 >= 0
C_0053_cost_0034: cost_0053 >= 0
C_0053_cost_0035: cost_0053 >= 0
C_0053_cost_0036: cost_0053 >= 0
C_0053_linear_0000: - act_0000 + xi_0053_0000 = 20
C_0053_linear_0001: - act_0001 + xi_0053_0001 = 24
C_0053_linear_0002: - act_0002 + xi_0053_0002 = 2718
C_0053_linear_0003: - act_0003 + xi_0053_0003 = 3
C_0053_linear_0004: - act_0004 + xi_0053_0004 = 4
C_0053_linear_0005: - act_0005 + xi_0053_0005 = 1
C_0053_linear_0006: - act_0006 + xi_0053_0006 = 0
C_0053_linear_0007: - act_0007 + xi_0053_0007 = 1
C_0053_linear_0008: - act_0008 + xi_0053_0008 = 1
C_0053_linear_0009: - act_0009 + xi_0053_0009 = 0
C_0053_linear_0010: - act_0010 + xi_0053_0010 = 0
C_0053_linear_0011: - act_0011 + xi_0053_0011 = 0
C_0053_linear_0012: - act_0012 + xi_0053_0012 = 0
C_0053_linear_0013: - act_0013 + xi_0053_0013 = 0
C_0053_linear_0014: - act_0014 + xi_0053_0014 = 0
C_0053_linear_0015: - act_0015 + xi_0053_0015 = 1
C_0053_linear_0016: - act_0016 + xi_0053_0016 = 0
C_0053_linear_0017: - act_0017 + xi_0053_0017 = 0
C_0053_linear_0018: - act_0018 + xi_0053_0018 = 0
C_0053_linear_0019: - act_0019 + xi_0053_0019 = 0
C_0053_linear_0020: - act_0020 + xi_0053_0020 = 0
C_0053_linear_0021: - act_0021 + xi_0053_0021 = 0
C_0053_linear_0022: - act_0022 + xi_0053_0022 = 0
C_0053_linear_0023: - act_0023 + xi_0053_0023 = 1
C_0053_linear_0024: - act_0024 + xi_0053_0024 = 0
C_0053_linear_0025: - act_0025 + xi_0053_0025 = 0
C_0053_linear_0026: - act_0026 + xi_0053_0026 = 0
C_0053_linear_0027: - act_0027 + xi_0053_0027 = 0
C_0053_linear_0028: - act_0028 + xi_0053_0028 = 0
C_0053_linear_0029: - act_0029 + xi_0053_0029 = 0
C_0053_linear_0030: - act_0030 + xi_0053_0030 = 1
C_0053_linear_0031: - act_0031 + xi_0053_0031 = 0
C_0053_linear_0032: - act_0032 + xi_0053_0032 = 1
C_0053_linear_0033: - act_0033 + xi_0053_0033 = 0
C_0053_linear_0034: - act_0034 + xi_0053_0034 = 1
C_0053_linear_0035: - act_0035 + xi_0053_0035 = 0
C_0053_linear_0036: - act_0036 + xi_0053_0036 = 0
C_0053_linear_0037: - act_0037 + xi_0053_0037 = 0
C_0053_linear_0038: - act_0038 + xi_0053_0038 = 0
C_0053_linear_0039: - act_0039 + xi_0053_0039 = 0
C_0053_loss_ge: - 10000 omg_0053 - 0.0111828930987 xi_0053_0000
 + 0.0316585861132 xi_0053_0001 + 0.000106039552982 xi_0053_0002
 + 0.2872356913 xi_0053_0003 + 0.013030358965 xi_0053_0004
 + 0.240120705533 xi_0053_0005 + 0.442580447937 xi_0053_0006
 - 0.375980671537 xi_0053_0007 + 0.392374151169 xi_0053_0008
 + 1.06701819784 xi_0053_0009 - 0.942756746323 xi_0053_0010
 + 0.412027349402 xi_0053_0011 + 0.570359951286 xi_0053_0012
 - 0.852905494999 xi_0053_0013 - 0.323418189169 xi_0053_0014
 + 0.252938924417 xi_0053_0015 - 0.0388599557068 xi_0053_0016
 - 0.020417849004 xi_0053_0017 - 0.119001175529 xi_0053_0018
 + 0.47399163059 xi_0053_0019 - 0.445604107063 xi_0053_0020
 - 0.0184582213876 xi_0053_0021 + 0.307589905785 xi_0053_0022
 + 0.444474821864 xi_0053_0023 - 0.187382383206 xi_0053_0024
 + 0.383302875585 xi_0053_0025 - 0.750161596334 xi_0053_0026
 - 1.33170117681 xi_0053_0027 + 0.0190658885385 xi_0053_0028
 - 0.745784276999 xi_0053_0029 - 0.516231038044 xi_0053_0030
 - 0.409255825925 xi_0053_0031 - 0.0994375517393 xi_0053_0032
 - 0.734256048841 xi_0053_0033 - 0.253933375138 xi_0053_0034
 - 0.256674950149 xi_0053_0035 - 0.732341101218 xi_0053_0036
 - 0.86707443001 xi_0053_0037 - 0.319117177314 xi_0053_0038
 + 0.0697086420108 xi_0053_0039 >= -9998.75705057
C_0053_loss_le: - 10000 omg_0053 - 0.0111828930987 xi_0053_0000
 + 0.0316585861132 xi_0053_0001 + 0.000106039552982 xi_0053_0002
 + 0.2872356913 xi_0053_0003 + 0.013030358965 xi_0053_0004
 + 0.240120705533 xi_0053_0005 + 0.442580447937 xi_0053_0006
 - 0.375980671537 xi_0053_0007 + 0.392374151169 xi_0053_0008
 + 1.06701819784 xi_0053_0009 - 0.942756746323 xi_0053_0010
 + 0.412027349402 xi_0053_0011 + 0.570359951286 xi_0053_0012
 - 0.852905494999 xi_0053_0013 - 0.323418189169 xi_0053_0014
 + 0.252938924417 xi_0053_0015 - 0.0388599557068 xi_0053_0016
 - 0.020417849004 xi_0053_0017 - 0.119001175529 xi_0053_0018
 + 0.47399163059 xi_0053_0019 - 0.445604107063 xi_0053_0020
 - 0.0184582213876 xi_0053_0021 + 0.307589905785 xi_0053_0022
 + 0.444474821864 xi_0053_0023 - 0.187382383206 xi_0053_0024
 + 0.383302875585 xi_0053_0025 - 0.750161596334 xi_0053_0026
 - 1.33170117681 xi_0053_0027 + 0.0190658885385 xi_0053_0028
 - 0.745784276999 xi_0053_0029 - 0.516231038044 xi_0053_0030
 - 0.409255825925 xi_0053_0031 - 0.0994375517393 xi_0053_0032
 - 0.734256048841 xi_0053_0033 - 0.253933375138 xi_0053_0034
 - 0.256674950149 xi_0053_0035 - 0.732341101218 xi_0053_0036
 - 0.86707443001 xi_0053_0037 - 0.319117177314 xi_0053_0038
 + 0.0697086420108 xi_0053_0039 <= 1.24294941651
C_0054_cost_0001: cost_0054 - 0.0124000182326 pi_0001_0000
 - 0.00617282715365 pi_0001_0001 >= 0
C_0054_cost_0002: cost_0054 - 0.00161450343854 pi_0002_0000
 - 0.00155197853982 pi_0002_0001 - 0.00148948821508 pi_0002_0002
 - 0.00142703242877 pi_0002_0003 - 0.00136461114534 pi_0002_0004
 - 0.00130222432921 pi_0002_0005 - 0.0012398719448 pi_0002_0006
 - 0.0011775539565 pi_0002_0007 - 0.00111527032871 pi_0002_0008
 - 0.00105302102579 pi_0002_0009 - 0.000990806012119 pi_0002_0010
 - 0.000928625252036 pi_0002_0011 - 0.000866478709879 pi_0002_0012
 - 0.00080436634997 pi_0002_0013 - 0.000742288136622 pi_0002_0014
 - 0.000680244034132 pi_0002_0015 - 0.000618234006785 pi_0002_0016
 - 0.000556258018853 pi_0002_0017 - 0.000494316034597 pi_0002_0018
 - 0.000432408018265 pi_0002_0019 - 0.000370533934091 pi_0002_0020
 - 0.000308693746299 pi_0002_0021 - 0.000246887419099 pi_0002_0022
 - 0.000185114916689 pi_0002_0023 - 0.000123376203256 pi_0002_0024
 - 6.16712429723e-05 pi_0002_0025 >= 0
C_0054_cost_0003: cost_0054 >= 0
C_0054_cost_0004: cost_0054 >= 0
C_0054_cost_0005: cost_0054 >= 0
C_0054_cost_0006: cost_0054 >= 0
C_0054_cost_0007: cost_0054 >= 0
C_0054_cost_0008: cost_0054 >= 0
C_0054_cost_0009: cost_0054 >= 0
C_0054_cost_0010: cost_0054 >= 0
C_0054_cost_0011: cost_0054 >= 0
C_0054_cost_0012: cost_0054 >= 0
C_0054_cost_0013: cost_0054 >= 0
C_0054_cost_0014: cost_0054 >= 0
C_0054_cost_0015: cost_0054 >= 0
C_0054_cost_0016: cost_0054 >= 0
C_0054_cost_0017: cost_0054 >= 0
C_0054_cost_0018: cost_0054 >= 0
C_0054_cost_0019: cost_0054 >= 0
C_0054_cost_0020: cost_0054 >= 0
C_0054_cost_0021: cost_0054 >= 0
C_0054_cost_0022: cost_0054 >= 0
C_0054_cost_0023: cost_0054 >= 0
C_0054_cost_0024: cost_0054 >= 0
C_0054_cost_0025: cost_0054 >= 0
C_0054_cost_0026: cost_0054 - 0.0106666652041 pi_0026_0000 >= 0
C_0054_cost_0027: cost_0054 >= 0
C_0054_cost_0028: cost_0054 >= 0
C_0054_cost_0029: cost_0054 - 0.426666385001 pi_0029_0000 >= 0
C_0054_cost_0030: cost_0054 >= 0
C_0054_cost_0031: cost_0054 >= 0
C_0054_cost_0032: cost_0054 >= 0
C_0054_cost_0033: cost_0054 >= 0
C_0054_cost_0034: cost_0054 >= 0
C_0054_cost_0035: cost_0054 >= 0
C_0054_cost_0036: cost_0054 >= 0
C_0054_linear_0000: - act_0000 + xi_0054_0000 = 33
C_0054_linear_0001: - act_0001 + xi_0054_0001 = 48
C_0054_linear_0002: - act_0002 + xi_0054_0002 = 4844
C_0054_linear_0003: - act_0003 + xi_0054_0003 = 3
C_0054_linear_0004: - act_0004 + xi_0054_0004 = 2
C_0054_linear_0005: - act_0005 + xi_0054_0005 = 1
C_0054_linear_0006: - act_0006 + xi_0054_0006 = 0
C_0054_linear_0007: - act_0007 + xi_0054_0007 = 1
C_0054_linear_0008: - act_0008 + xi_0054_0008 = 1
C_0054_linear_0009: - act_0009 + xi_0054_0009 = 0
C_0054_linear_0010: - act_0010 + xi_0054_0010 = 0
C_0054_linear_0011: - act_0011 + xi_0054_0011 = 1
C_0054_linear_0012: - act_0012 + xi_0054_0012 = 0
C_0054_linear_0013: - act_0013 + xi_0054_0013 = 0
C_0054_linear_0014: - act_0014 + xi_0054_0014 = 0
C_0054_linear_0015: - act_0015 + xi_0054_0015 = 1
C_0054_linear_0016: - act_0016 + xi_0054_0016 = 1
C_0054_linear_0017: - act_0017 + xi_0054_0017 = 1
C_0054_linear_0018: - act_0018 + xi_0054_0018 = 1
C_0054_linear_0019: - act_0019 + xi_0054_0019 = 0
C_0054_linear_0020: - act_0020 + xi_0054_0020 = 0
C_0054_linear_0021: - act_0021 + xi_0054_0021 = 0
C_0054_linear_0022: - act_0022 + xi_0054_0022 = 0
C_0054_linear_0023: - act_0023 + xi_0054_0023 = 0
C_0054_linear_0024: - act_0024 + xi_0054_0024 = 0
C_0054_linear_0025: - act_0025 + xi_0054_0025 = 0
C_0054_linear_0026: - act_0026 + xi_0054_0026 = 0
C_0054_linear_0027: - act_0027 + xi_0054_0027 = 0
C_0054_linear_0028: - act_0028 + xi_0054_0028 = 0
C_0054_linear_0029: - act_0029 + xi_0054_0029 = 0
C_0054_linear_0030: - act_0030 + xi_0054_0030 = 1
C_0054_linear_0031: - act_0031 + xi_0054_0031 = 1
C_0054_linear_0032: - act_0032 + xi_0054_0032 = 0
C_0054_linear_0033: - act_0033 + xi_0054_0033 = 0
C_0054_linear_0034: - act_0034 + xi_0054_0034 = 1
C_0054_linear_0035: - act_0035 + xi_0054_0035 = 0
C_0054_linear_0036: - act_0036 + xi_0054_0036 = 0
C_0054_linear_0037: - act_0037 + xi_0054_0037 = 0
C_0054_linear_0038: - act_0038 + xi_0054_0038 = 1
C_0054_linear_0039: - act_0039 + xi_0054_0039 = 1
C_0054_loss_ge: - 10000 omg_0054 - 0.0111828930987 xi_0054_0000
 + 0.0316585861132 xi_0054_0001 + 0.000106039552982 xi_0054_0002
 + 0.2872356913 xi_0054_0003 + 0.013030358965 xi_0054_0004
 + 0.240120705533 xi_0054_0005 + 0.442580447937 xi_0054_0006
 - 0.375980671537 xi_0054_0007 + 0.392374151169 xi_0054_0008
 + 1.06701819784 xi_0054_0009 - 0.942756746323 xi_0054_0010
 + 0.412027349402 xi_0054_0011 + 0.570359951286 xi_0054_0012
 - 0.852905494999 xi_0054_0013 - 0.323418189169 xi_0054_0014
 + 0.252938924417 xi_0054_0015 - 0.0388599557068 xi_0054_0016
 - 0.020417849004 xi_0054_0017 - 0.119001175529 xi_0054_0018
 + 0.47399163059 xi_0054_0019 - 0.445604107063 xi_0054_0020
 - 0.0184582213876 xi_0054_0021 + 0.307589905785 xi_0054_0022
 + 0.444474821864 xi_0054_0023 - 0.187382383206 xi_0054_0024
 + 0.383302875585 xi_0054_0025 - 0.750161596334 xi_0054_0026
 - 1.33170117681 xi_0054_0027 + 0.0190658885385 xi_0054_0028
 - 0.745784276999 xi_0054_0029 - 0.516231038044 xi_0054_0030
 - 0.409255825925 xi_0054_0031 - 0.0994375517393 xi_0054_0032
 - 0.734256048841 xi_0054_0033 - 0.253933375138 xi_0054_0034
 - 0.256674950149 xi_0054_0035 - 0.732341101218 xi_0054_0036
 - 0.86707443001 xi_0054_0037 - 0.319117177314 xi_0054_0038
 + 0.0697086420108 xi_0054_0039 >= -9998.75705057
C_0054_loss_le: - 10000 omg_0054 - 0.0111828930987 xi_0054_0000
 + 0.0316585861132 xi_0054_0001 + 0.000106039552982 xi_0054_0002
 + 0.2872356913 xi_0054_0003 + 0.013030358965 xi_0054_0004
 + 0.240120705533 xi_0054_0005 + 0.442580447937 xi_0054_0006
 - 0.375980671537 xi_0054_0007 + 0.392374151169 xi_0054_0008
 + 1.06701819784 xi_0054_0009 - 0.942756746323 xi_0054_0010
 + 0.412027349402 xi_0054_0011 + 0.570359951286 xi_0054_0012
 - 0.852905494999 xi_0054_0013 - 0.323418189169 xi_0054_0014
 + 0.252938924417 xi_0054_0015 - 0.0388599557068 xi_0054_0016
 - 0.020417849004 xi_0054_0017 - 0.119001175529 xi_0054_0018
 + 0.47399163059 xi_0054_0019 - 0.445604107063 xi_0054_0020
 - 0.0184582213876 xi_0054_0021 + 0.307589905785 xi_0054_0022
 + 0.444474821864 xi_0054_0023 - 0.187382383206 xi_0054_0024
 + 0.383302875585 xi_0054_0025 - 0.750161596334 xi_0054_0026
 - 1.33170117681 xi_0054_0027 + 0.0190658885385 xi_0054_0028
 - 0.745784276999 xi_0054_0029 - 0.516231038044 xi_0054_0030
 - 0.409255825925 xi_0054_0031 - 0.0994375517393 xi_0054_0032
 - 0.734256048841 xi_0054_0033 - 0.253933375138 xi_0054_0034
 - 0.256674950149 xi_0054_0035 - 0.732341101218 xi_0054_0036
 - 0.86707443001 xi_0054_0037 - 0.319117177314 xi_0054_0038
 + 0.0697086420108 xi_0054_0039 <= 1.24294941651
C_0055_cost_0001: cost_0055 - 0.0873361949203 pi_0001_0000
 - 0.0442906580929 pi_0001_0001 >= 0
C_0055_cost_0002: cost_0055 - 0.00471114151595 pi_0002_0000
 - 0.00453188433459 pi_0002_0001 - 0.00435247136191 pi_0002_0002
 - 0.00417290266411 pi_0002_0003 - 0.00399317830771 pi_0002_0004
 - 0.00381329835961 pi_0002_0005 - 0.00363326288704 pi_0002_0006
 - 0.00345307195762 pi_0002_0007 - 0.0032727256393 pi_0002_0008
 - 0.00309222400039 pi_0002_0009 - 0.00291156710956 pi_0002_0010
 - 0.00273075503582 pi_0002_0011 - 0.00254978784855 pi_0002_0012
 - 0.00236866561749 pi_0002_0013 - 0.00218738841272 pi_0002_0014
 - 0.00200595630467 pi_0002_0015 - 0.00182436936414 pi_0002_0016
 - 0.00164262766228 pi_0002_0017 - 0.00146073127059 pi_0002_0018
 - 0.00127868026092 pi_0002_0019 - 0.00109647470548 pi_0002_0020
 - 0.000914114676842 pi_0002_0021 - 0.000731600247913 pi_0002_0022
 - 0.000548931491965 pi_0002_0023 - 0.000366108482621 pi_0002_0024
 - 0.000183131293856 pi_0002_0025 >= 0
C_0055_cost_0003: cost_0055 >= 0
C_0055_cost_0004: cost_0055 >= 0
C_0055_cost_0005: cost_0055 >= 0
C_0055_cost_0006: cost_0055 >= 0
C_0055_cost_0007: cost_0055 >= 0
C_0055_cost_0008: cost_0055 >= 0
C_0055_cost_0009: cost_0055 >= 0
C_0055_cost_0010: cost_0055 >= 0
C_0055_cost_0011: cost_0055 >= 0
C_0055_cost_0012: cost_0055 >= 0
C_0055_cost_0013: cost_0055 >= 0
C_0055_cost_0014: cost_0055 >= 0
C_0055_cost_0015: cost_0055 >= 0
C_0055_cost_0016: cost_0055 >= 0
C_0055_cost_0017: cost_0055 >= 0
C_0055_cost_0018: cost_0055 >= 0
C_0055_cost_0019: cost_0055 >= 0
C_0055_cost_0020: cost_0055 >= 0
C_0055_cost_0021: cost_0055 >= 0
C_0055_cost_0022: cost_0055 >= 0
C_0055_cost_0023: cost_0055 >= 0
C_0055_cost_0024: cost_0055 >= 0
C_0055_cost_0025: cost_0055 >= 0
C_0055_cost_0026: cost_0055 - 0.0106666652041 pi_0026_0000 >= 0
C_0055_cost_0027: cost_0055 >= 0
C_0055_cost_0028: cost_0055 >= 0
C_0055_cost_0029: cost_0055 - 0.426666385001 pi_0029_0000 >= 0
C_0055_cost_0030: cost_0055 >= 0
C_0055_cost_0031: cost_0055 >= 0
C_0055_cost_0032: cost_0055 >= 0
C_0055_cost_0033: cost_0055 >= 0
C_0055_cost_0034: cost_0055 >= 0
C_0055_cost_0035: cost_0055 >= 0
C_0055_cost_0036: cost_0055 >= 0
C_0055_linear_0000: - act_0000 + xi_0055_0000 = 46
C_0055_linear_0001: - act_0001 + xi_0055_0001 = 12
C_0055_linear_0002: - act_0002 + xi_0055_0002 = 697
C_0055_linear_0003: - act_0003 + xi_0055_0003 = 4
C_0055_linear_0004: - act_0004 + xi_0055_0004 = 2
C_0055_linear_0005: - act_0005 + xi_0055_0005 = 2
C_0055_linear_0006: - act_0006 + xi_0055_0006 = 0
C_0055_linear_0007: - act_0007 + xi_0055_0007 = 1
C_0055_linear_0008: - act_0008 + xi_0055_0008 = 1
C_0055_linear_0009: - act_0009 + xi_0055_0009 = 1
C_0055_linear_0010: - act_0010 + xi_0055_0010 = 0
C_0055_linear_0011: - act_0011 + xi_0055_0011 = 1
C_0055_linear_0012: - act_0012 + xi_0055_0012 = 0
C_0055_linear_0013: - act_0013 + xi_0055_0013 = 0
C_0055_linear_0014: - act_0014 + xi_0055_0014 = 1
C_0055_linear_0015: - act_0015 + xi_0055_0015 = 0
C_0055_linear_0016: - act_0016 + xi_0055_0016 = 0
C_0055_linear_0017: - act_0017 + xi_0055_0017 = 1
C_0055_linear_0018: - act_0018 + xi_0055_0018 = 0
C_0055_linear_0019: - act_0019 + xi_0055_0019 = 0
C_0055_linear_0020: - act_0020 + xi_0055_0020 = 0
C_0055_linear_0021: - act_0021 + xi_0055_0021 = 0
C_0055_linear_0022: - act_0022 + xi_0055_0022 = 0
C_0055_linear_0023: - act_0023 + xi_0055_0023 = 1
C_0055_linear_0024: - act_0024 + xi_0055_0024 = 0
C_0055_linear_0025: - act_0025 + xi_0055_0025 = 0
C_0055_linear_0026: - act_0026 + xi_0055_0026 = 0
C_0055_linear_0027: - act_0027 + xi_0055_0027 = 0
C_0055_linear_0028: - act_0028 + xi_0055_0028 = 1
C_0055_linear_0029: - act_0029 + xi_0055_0029 = 0
C_0055_linear_0030: - act_0030 + xi_0055_0030 = 0
C_0055_linear_0031: - act_0031 + xi_0055_0031 = 1
C_0055_linear_0032: - act_0032 + xi_0055_0032 = 0
C_0055_linear_0033: - act_0033 + xi_0055_0033 = 0
C_0055_linear_0034: - act_0034 + xi_0055_0034 = 1
C_0055_linear_0035: - act_0035 + xi_0055_0035 = 0
C_0055_linear_0036: - act_0036 + xi_0055_0036 = 0
C_0055_linear_0037: - act_0037 + xi_0055_0037 = 0
C_0055_linear_0038: - act_0038 + xi_0055_0038 = 1
C_0055_linear_0039: - act_0039 + xi_0055_0039 = 1
C_0055_loss_ge: - 10000 omg_0055 - 0.0111828930987 xi_0055_0000
 + 0.0316585861132 xi_0055_0001 + 0.000106039552982 xi_0055_0002
 + 0.2872356913 xi_0055_0003 + 0.013030358965 xi_0055_0004
 + 0.240120705533 xi_0055_0005 + 0.442580447937 xi_0055_0006
 - 0.375980671537 xi_0055_0007 + 0.392374151169 xi_0055_0008
 + 1.06701819784 xi_0055_0009 - 0.942756746323 xi_0055_0010
 + 0.412027349402 xi_0055_0011 + 0.570359951286 xi_0055_0012
 - 0.852905494999 xi_0055_0013 - 0.323418189169 xi_0055_0014
 + 0.252938924417 xi_0055_0015 - 0.0388599557068 xi_0055_0016
 - 0.020417849004 xi_0055_0017 - 0.119001175529 xi_0055_0018
 + 0.47399163059 xi_0055_0019 - 0.445604107063 xi_0055_0020
 - 0.0184582213876 xi_0055_0021 + 0.307589905785 xi_0055_0022
 + 0.444474821864 xi_0055_0023 - 0.187382383206 xi_0055_0024
 + 0.383302875585 xi_0055_0025 - 0.750161596334 xi_0055_0026
 - 1.33170117681 xi_0055_0027 + 0.0190658885385 xi_0055_0028
 - 0.745784276999 xi_0055_0029 - 0.516231038044 xi_0055_0030
 - 0.409255825925 xi_0055_0031 - 0.0994375517393 xi_0055_0032
 - 0.734256048841 xi_0055_0033 - 0.253933375138 xi_0055_0034
 - 0.256674950149 xi_0055_0035 - 0.732341101218 xi_0055_0036
 - 0.86707443001 xi_0055_0037 - 0.319117177314 xi_0055_0038
 + 0.0697086420108 xi_0055_0039 >= -9998.75705057
C_0055_loss_le: - 10000 omg_0055 - 0.0111828930987 xi_0055_0000
 + 0.0316585861132 xi_0055_0001 + 0.000106039552982 xi_0055_0002
 + 0.2872356913 xi_0055_0003 + 0.013030358965 xi_0055_0004
 + 0.240120705533 xi_0055_0005 + 0.442580447937 xi_0055_0006
 - 0.375980671537 xi_0055_0007 + 0.392374151169 xi_0055_0008
 + 1.06701819784 xi_0055_0009 - 0.942756746323 xi_0055_0010
 + 0.412027349402 xi_0055_0011 + 0.570359951286 xi_0055_0012
 - 0.852905494999 xi_0055_0013 - 0.323418189169 xi_0055_0014
 + 0.252938924417 xi_0055_0015 - 0.0388599557068 xi_0055_0016
 - 0.020417849004 xi_0055_0017 - 0.119001175529 xi_0055_0018
 + 0.47399163059 xi_0055_0019 - 0.445604107063 xi_0055_0020
 - 0.0184582213876 xi_0055_0021 + 0.307589905785 xi_0055_0022
 + 0.444474821864 xi_0055_0023 - 0.187382383206 xi_0055_0024
 + 0.383302875585 xi_0055_0025 - 0.750161596334 xi_0055_0026
 - 1.33170117681 xi_0055_0027 + 0.0190658885385 xi_0055_0028
 - 0.745784276999 xi_0055_0029 - 0.516231038044 xi_0055_0030
 - 0.409255825925 xi_0055_0031 - 0.0994375517393 xi_0055_0032
 - 0.734256048841 xi_0055_0033 - 0.253933375138 xi_0055_0034
 - 0.256674950149 xi_0055_0035 - 0.732341101218 xi_0055_0036
 - 0.86707443001 xi_0055_0037 - 0.319117177314 xi_0055_0038
 + 0.0697086420108 xi_0055_0039 <= 1.24294941651
C_0056_cost_0001: cost_0056 - 0.0639671434312 pi_0001_0000
 - 0.0315831062354 pi_0001_0001 >= 0
C_0056_cost_0002: cost_0056 - 0.00407965338965 pi_0002_0000
 - 0.003921818884 pi_0002_0001 - 0.00376405852873 pi_0002_0002
 - 0.00360637230261 pi_0002_0003 - 0.00344876018445 pi_0002_0004
 - 0.00329122215303 pi_0002_0005 - 0.00313375818714 pi_0002_0006
 - 0.00297636826558 pi_0002_0007 - 0.00281905236715 pi_0002_0008
 - 0.00266181047065 pi_0002_0009 - 0.00250464255488 pi_0002_0010
 - 0.00234754859866 pi_0002_0011 - 0.00219052858079 pi_0002_0012
 - 0.00203358248009 pi_0002_0013 - 0.00187671027537 pi_0002_0014
 - 0.00171991194546 pi_0002_0015 - 0.00156318746919 pi_0002_0016
 - 0.00140653682537 pi_0002_0017 - 0.00124995999284 pi_0002_0018
 - 0.00109345695044 pi_0002_0019 - 0.000937027676999 pi_0002_0020
 - 0.000780672151365 pi_0002_0021 - 0.000624390352382 pi_0002_0022
 - 0.000468182258899 pi_0002_0023 - 0.000312047849769 pi_0002_0024
 - 0.000155987103849 pi_0002_0025 >= 0
C_0056_cost_0003: cost_0056 >= 0
C_0056_cost_0004: cost_0056 >= 0
C_0056_cost_0005: cost_0056 >= 0
C_0056_cost_0006: cost_0056 >= 0
C_0056_cost_0007: cost_0056 >= 0
C_0056_cost_0008: cost_0056 >= 0
C_0056_cost_0009: cost_0056 >= 0
C_0056_cost_0010: cost_0056 >= 0
C_0056_cost_0011: cost_0056 >= 0
C_0056_cost_0012: cost_0056 >= 0
C_0056_cost_0013: cost_0056 >= 0
C_0056_cost_0014: cost_0056 >= 0
C_0056_cost_0015: cost_0056 >= 0
C_0056_cost_0016: cost_0056 >= 0
C_0056_cost_0017: cost_0056 >= 0
C_0056_cost_0018: cost_0056 >= 0
C_0056_cost_0019: cost_0056 >= 0
C_0056_cost_0020: cost_0056 >= 0
C_0056_cost_0021: cost_0056 >= 0
C_0056_cost_0022: cost_0056 >= 0
C_0056_cost_0023: cost_0056 >= 0
C_0056_cost_0024: cost_0056 >= 0
C_0056_cost_0025: cost_0056 >= 0
C_0056_cost_0026: cost_0056 - 0.0106666652041 pi_0026_0000 >= 0
C_0056_cost_0027: cost_0056 >= 0
C_0056_cost_0028: cost_0056 >= 0
C_0056_cost_0029: cost_0056 - 0.426666385001 pi_0029_0000 >= 0
C_0056_cost_0030: cost_0056 >= 0
C_0056_cost_0031: cost_0056 >= 0
C_0056_cost_0032: cost_0056 >= 0
C_0056_cost_0033: cost_0056 >= 0
C_0056_cost_0034: cost_0056 >= 0
C_0056_cost_0035: cost_0056 >= 0
C_0056_cost_0036: cost_0056 >= 0
C_0056_linear_0000: - act_0000 + xi_0056_0000 = 31
C_0056_linear_0001: - act_0001 + xi_0056_0001 = 24
C_0056_linear_0002: - act_0002 + xi_0056_0002 = 3161
C_0056_linear_0003: - act_0003 + xi_0056_0003 = 4
C_0056_linear_0004: - act_0004 + xi_0056_0004 = 2
C_0056_linear_0005: - act_0005 + xi_0056_0005 = 1
C_0056_linear_0006: - act_0006 + xi_0056_0006 = 0
C_0056_linear_0007: - act_0007 + xi_0056_0007 = 1
C_0056_linear_0008: - act_0008 + xi_0056_0008 = 1
C_0056_linear_0009: - act_0009 + xi_0056_0009 = 1
C_0056_linear_0010: - act_0010 + xi_0056_0010 = 0
C_0056_linear_0011: - act_0011 + xi_0056_0011 = 0
C_0056_linear_0012: - act_0012 + xi_0056_0012 = 0
C_0056_linear_0013: - act_0013 + xi_0056_0013 = 0
C_0056_linear_0014: - act_0014 + xi_0056_0014 = 0
C_0056_linear_0015: - act_0015 + xi_0056_0015 = 1
C_0056_linear_0016: - act_0016 + xi_0056_0016 = 0
C_0056_linear_0017: - act_0017 + xi_0056_0017 = 1
C_0056_linear_0018: - act_0018 + xi_0056_0018 = 1
C_0056_linear_0019: - act_0019 + xi_0056_0019 = 0
C_0056_linear_0020: - act_0020 + xi_0056_0020 = 0
C_0056_linear_0021: - act_0021 + xi_0056_0021 = 0
C_0056_linear_0022: - act_0022 + xi_0056_0022 = 0
C_0056_linear_0023: - act_0023 + xi_0056_0023 = 0
C_0056_linear_0024: - act_0024 + xi_0056_0024 = 0
C_0056_linear_0025: - act_0025 + xi_0056_0025 = 0
C_0056_linear_0026: - act_0026 + xi_0056_0026 = 0
C_0056_linear_0027: - act_0027 + xi_0056_0027 = 0
C_0056_linear_0028: - act_0028 + xi_0056_0028 = 0
C_0056_linear_0029: - act_0029 + xi_0056_0029 = 0
C_0056_linear_0030: - act_0030 + xi_0056_0030 = 1
C_0056_linear_0031: - act_0031 + xi_0056_0031 = 1
C_0056_linear_0032: - act_0032 + xi_0056_0032 = 0
C_0056_linear_0033: - act_0033 + xi_0056_0033 = 0
C_0056_linear_0034: - act_0034 + xi_0056_0034 = 1
C_0056_linear_0035: - act_0035 + xi_0056_0035 = 0
C_0056_linear_0036: - act_0036 + xi_0056_0036 = 0
C_0056_linear_0037: - act_0037 + xi_0056_0037 = 0
C_0056_linear_0038: - act_0038 + xi_0056_0038 = 1
C_0056_linear_0039: - act_0039 + xi_0056_0039 = 1
C_0056_loss_ge: - 10000 omg_0056 - 0.0111828930987 xi_0056_0000
 + 0.0316585861132 xi_0056_0001 + 0.000106039552982 xi_0056_0002
 + 0.2872356913 xi_0056_0003 + 0.013030358965 xi_0056_0004
 + 0.240120705533 xi_0056_0005 + 0.442580447937 xi_0056_0006
 - 0.375980671537 xi_0056_0007 + 0.392374151169 xi_0056_0008
 + 1.06701819784 xi_0056_0009 - 0.942756746323 xi_0056_0010
 + 0.412027349402 xi_0056_0011 + 0.570359951286 xi_0056_0012
 - 0.852905494999 xi_0056_0013 - 0.323418189169 xi_0056_0014
 + 0.252938924417 xi_0056_0015 - 0.0388599557068 xi_0056_0016
 - 0.020417849004 xi_0056_0017 - 0.119001175529 xi_0056_0018
 + 0.47399163059 xi_0056_0019 - 0.445604107063 xi_0056_0020
 - 0.0184582213876 xi_0056_0021 + 0.307589905785 xi_0056_0022
 + 0.444474821864 xi_0056_0023 - 0.187382383206 xi_0056_0024
 + 0.383302875585 xi_0056_0025 - 0.750161596334 xi_0056_0026
 - 1.33170117681 xi_0056_0027 + 0.0190658885385 xi_0056_0028
 - 0.745784276999 xi_0056_0029 - 0.516231038044 xi_0056_0030
 - 0.409255825925 xi_0056_0031 - 0.0994375517393 xi_0056_0032
 - 0.734256048841 xi_0056_0033 - 0.253933375138 xi_0056_0034
 - 0.256674950149 xi_0056_0035 - 0.732341101218 xi_0056_0036
 - 0.86707443001 xi_0056_0037 - 0.319117177314 xi_0056_0038
 + 0.0697086420108 xi_0056_0039 >= -9998.75705057
C_0056_loss_le: - 10000 omg_0056 - 0.0111828930987 xi_0056_0000
 + 0.0316585861132 xi_0056_0001 + 0.000106039552982 xi_0056_0002
 + 0.2872356913 xi_0056_0003 + 0.013030358965 xi_0056_0004
 + 0.240120705533 xi_0056_0005 + 0.442580447937 xi_0056_0006
 - 0.375980671537 xi_0056_0007 + 0.392374151169 xi_0056_0008
 + 1.06701819784 xi_0056_0009 - 0.942756746323 xi_0056_0010
 + 0.412027349402 xi_0056_0011 + 0.570359951286 xi_0056_0012
 - 0.852905494999 xi_0056_0013 - 0.323418189169 xi_0056_0014
 + 0.252938924417 xi_0056_0015 - 0.0388599557068 xi_0056_0016
 - 0.020417849004 xi_0056_0017 - 0.119001175529 xi_0056_0018
 + 0.47399163059 xi_0056_0019 - 0.445604107063 xi_0056_0020
 - 0.0184582213876 xi_0056_0021 + 0.307589905785 xi_0056_0022
 + 0.444474821864 xi_0056_0023 - 0.187382383206 xi_0056_0024
 + 0.383302875585 xi_0056_0025 - 0.750161596334 xi_0056_0026
 - 1.33170117681 xi_0056_0027 + 0.0190658885385 xi_0056_0028
 - 0.745784276999 xi_0056_0029 - 0.516231038044 xi_0056_0030
 - 0.409255825925 xi_0056_0031 - 0.0994375517393 xi_0056_0032
 - 0.734256048841 xi_0056_0033 - 0.253933375138 xi_0056_0034
 - 0.256674950149 xi_0056_0035 - 0.732341101218 xi_0056_0036
 - 0.86707443001 xi_0056_0037 - 0.319117177314 xi_0056_0038
 + 0.0697086420108 xi_0056_0039 <= 1.24294941651
C_0057_cost_0001: cost_0057 - 0.0639671434312 pi_0001_0000
 - 0.0315831062354 pi_0001_0001 >= 0
C_0057_cost_0002: cost_0057 - 0.00662785726795 pi_0002_0000
 - 0.00637350429216 pi_0002_0001 - 0.00611910448363 pi_0002_0002
 - 0.00586465805044 pi_0002_0003 - 0.00561016520066 pi_0002_0004
 - 0.00535562614234 pi_0002_0005 - 0.00510104108351 pi_0002_0006
 - 0.00484641023221 pi_0002_0007 - 0.00459173379642 pi_0002_0008
 - 0.00433701198413 pi_0002_0009 - 0.00408224500331 pi_0002_0010
 - 0.00382743306189 pi_0002_0011 - 0.0035725763678 pi_0002_0012
 - 0.00331767512894 pi_0002_0013 - 0.00306272955318 pi_0002_0014
 - 0.00280773984838 pi_0002_0015 - 0.00255270622237 pi_0002_0016
 - 0.00229762888296 pi_0002_0017 - 0.00204250803792 pi_0002_0018
 - 0.00178734389501 pi_0002_0019 - 0.00153213666197 pi_0002_0020
 - 0.00127688654648 pi_0002_0021 - 0.00102159375623 pi_0002_0022
 - 0.000766258498852 pi_0002_0023 - 0.000510880981971 pi_0002_0024
 - 0.000255461413169 pi_0002_0025 >= 0
C_0057_cost_0003: cost_0057 >= 0
C_0057_cost_0004: cost_0057 >= 0
C_0057_cost_0005: cost_0057 >= 0
C_0057_cost_0006: cost_0057 >= 0
C_0057_cost_0007: cost_0057 >= 0
C_0057_cost_0008: cost_0057 >= 0
C_0057_cost_0009: cost_0057 >= 0
C_0057_cost_0010: cost_0057 >= 0
C_0057_cost_0011: cost_0057 >= 0
C_0057_cost_0012: cost_0057 >= 0
C_0057_cost_0013: cost_0057 >= 0
C_0057_cost_0014: cost_0057 >= 0
C_0057_cost_0015: cost_0057 >= 0
C_0057_cost_0016: cost_0057 >= 0
C_0057_cost_0017: cost_0057 >= 0
C_0057_cost_0018: cost_0057 >= 0
C_0057_cost_0019: cost_0057 >= 0
C_0057_cost_0020: cost_0057 >= 0
C_0057_cost_0021: cost_0057 >= 0
C_0057_cost_0022: cost_0057 >= 0
C_0057_cost_0023: cost_0057 >= 0
C_0057_cost_0024: cost_0057 >= 0
C_0057_cost_0025: cost_0057 >= 0
C_0057_cost_0026: cost_0057 - 0.0106666652041 pi_0026_0000 >= 0
C_0057_cost_0027: cost_0057 >= 0
C_0057_cost_0028: cost_0057 >= 0
C_0057_cost_0029: cost_0057 - 0.426666385001 pi_0029_0000 >= 0
C_0057_cost_0030: cost_0057 >= 0
C_0057_cost_0031: cost_0057 >= 0
C_0057_cost_0032: cost_0057 >= 0
C_0057_cost_0033: cost_0057 >= 0
C_0057_cost_0034: cost_0057 >= 0
C_0057_cost_0035: cost_0057 >= 0
C_0057_cost_0036: cost_0057 >= 0
C_0057_linear_0000: - act_0000 + xi_0057_0000 = 35
C_0057_linear_0001: - act_0001 + xi_0057_0001 = 24
C_0057_linear_0002: - act_0002 + xi_0057_0002 = 1381
C_0057_linear_0003: - act_0003 + xi_0057_0003 = 4
C_0057_linear_0004: - act_0004 + xi_0057_0004 = 2
C_0057_linear_0005: - act_0005 + xi_0057_0005 = 1
C_0057_linear_0006: - act_0006 + xi_0057_0006 = 0
C_0057_linear_0007: - act_0007 + xi_0057_0007 = 0
C_0057_linear_0008: - act_0008 + xi_0057_0008 = 1
C_0057_linear_0009: - act_0009 + xi_0057_0009 = 0
C_0057_linear_0010: - act_0010 + xi_0057_0010 = 0
C_0057_linear_0011: - act_0011 + xi_0057_0011 = 0
C_0057_linear_0012: - act_0012 + xi_0057_0012 = 0
C_0057_linear_0013: - act_0013 + xi_0057_0013 = 0
C_0057_linear_0014: - act_0014 + xi_0057_0014 = 1
C_0057_linear_0015: - act_0015 + xi_0057_0015 = 0
C_0057_linear_0016: - act_0016 + xi_0057_0016 = 0
C_0057_linear_0017: - act_0017 + xi_0057_0017 = 1
C_0057_linear_0018: - act_0018 + xi_0057_0018 = 0
C_0057_linear_0019: - act_0019 + xi_0057_0019 = 0
C_0057_linear_0020: - act_0020 + xi_0057_0020 = 0
C_0057_linear_0021: - act_0021 + xi_0057_0021 = 0
C_0057_linear_0022: - act_0022 + xi_0057_0022 = 0
C_0057_linear_0023: - act_0023 + xi_0057_0023 = 1
C_0057_linear_0024: - act_0024 + xi_0057_0024 = 0
C_0057_linear_0025: - act_0025 + xi_0057_0025 = 0
C_0057_linear_0026: - act_0026 + xi_0057_0026 = 0
C_0057_linear_0027: - act_0027 + xi_0057_0027 = 0
C_0057_linear_0028: - act_0028 + xi_0057_0028 = 0
C_0057_linear_0029: - act_0029 + xi_0057_0029 = 0
C_0057_linear_0030: - act_0030 + xi_0057_0030 = 1
C_0057_linear_0031: - act_0031 + xi_0057_0031 = 1
C_0057_linear_0032: - act_0032 + xi_0057_0032 = 0
C_0057_linear_0033: - act_0033 + xi_0057_0033 = 0
C_0057_linear_0034: - act_0034 + xi_0057_0034 = 1
C_0057_linear_0035: - act_0035 + xi_0057_0035 = 0
C_0057_linear_0036: - act_0036 + xi_0057_0036 = 0
C_0057_linear_0037: - act_0037 + xi_0057_0037 = 0
C_0057_linear_0038: - act_0038 + xi_0057_0038 = 0
C_0057_linear_0039: - act_0039 + xi_0057_0039 = 0
C_0057_loss_ge: - 10000 omg_0057 - 0.0111828930987 xi_0057_0000
 + 0.0316585861132 xi_0057_0001 + 0.000106039552982 xi_0057_0002
 + 0.2872356913 xi_0057_0003 + 0.013030358965 xi_0057_0004
 + 0.240120705533 xi_0057_0005 + 0.442580447937 xi_0057_0006
 - 0.375980671537 xi_0057_0007 + 0.392374151169 xi_0057_0008
 + 1.06701819784 xi_0057_0009 - 0.942756746323 xi_0057_0010
 + 0.412027349402 xi_0057_0011 + 0.570359951286 xi_0057_0012
 - 0.852905494999 xi_0057_0013 - 0.323418189169 xi_0057_0014
 + 0.252938924417 xi_0057_0015 - 0.0388599557068 xi_0057_0016
 - 0.020417849004 xi_0057_0017 - 0.119001175529 xi_0057_0018
 + 0.47399163059 xi_0057_0019 - 0.445604107063 xi_0057_0020
 - 0.0184582213876 xi_0057_0021 + 0.307589905785 xi_0057_0022
 + 0.444474821864 xi_0057_0023 - 0.187382383206 xi_0057_0024
 + 0.383302875585 xi_0057_0025 - 0.750161596334 xi_0057_0026
 - 1.33170117681 xi_0057_0027 + 0.0190658885385 xi_0057_0028
 - 0.745784276999 xi_0057_0029 - 0.516231038044 xi_0057_0030
 - 0.409255825925 xi_0057_0031 - 0.0994375517393 xi_0057_0032
 - 0.734256048841 xi_0057_0033 - 0.253933375138 xi_0057_0034
 - 0.256674950149 xi_0057_0035 - 0.732341101218 xi_0057_0036
 - 0.86707443001 xi_0057_0037 - 0.319117177314 xi_0057_0038
 + 0.0697086420108 xi_0057_0039 >= -9998.75705057
C_0057_loss_le: - 10000 omg_0057 - 0.0111828930987 xi_0057_0000
 + 0.0316585861132 xi_0057_0001 + 0.000106039552982 xi_0057_0002
 + 0.2872356913 xi_0057_0003 + 0.013030358965 xi_0057_0004
 + 0.240120705533 xi_0057_0005 + 0.442580447937 xi_0057_0006
 - 0.375980671537 xi_0057_0007 + 0.392374151169 xi_0057_0008
 + 1.06701819784 xi_0057_0009 - 0.942756746323 xi_0057_0010
 + 0.412027349402 xi_0057_0011 + 0.570359951286 xi_0057_0012
 - 0.852905494999 xi_0057_0013 - 0.323418189169 xi_0057_0014
 + 0.252938924417 xi_0057_0015 - 0.0388599557068 xi_0057_0016
 - 0.020417849004 xi_0057_0017 - 0.119001175529 xi_0057_0018
 + 0.47399163059 xi_0057_0019 - 0.445604107063 xi_0057_0020
 - 0.0184582213876 xi_0057_0021 + 0.307589905785 xi_0057_0022
 + 0.444474821864 xi_0057_0023 - 0.187382383206 xi_0057_0024
 + 0.383302875585 xi_0057_0025 - 0.750161596334 xi_0057_0026
 - 1.33170117681 xi_0057_0027 + 0.0190658885385 xi_0057_0028
 - 0.745784276999 xi_0057_0029 - 0.516231038044 xi_0057_0030
 - 0.409255825925 xi_0057_0031 - 0.0994375517393 xi_0057_0032
 - 0.734256048841 xi_0057_0033 - 0.253933375138 xi_0057_0034
 - 0.256674950149 xi_0057_0035 - 0.732341101218 xi_0057_0036
 - 0.86707443001 xi_0057_0037 - 0.319117177314 xi_0057_0038
 + 0.0697086420108 xi_0057_0039 <= 1.24294941651
C_0058_cost_0001: cost_0058 - 0.0653909198978 pi_0001_0000
 - 0.0317669758175 pi_0001_0001 >= 0
C_0058_cost_0002: cost_0058 - 0.00592023567979 pi_0002_0000
 - 0.00569156349215 pi_0002_0001 - 0.00546296863111 pi_0002_0002
 - 0.00523445114007 pi_0002_0003 - 0.00500601106226 pi_0002_0004
 - 0.00477764844069 pi_0002_0005 - 0.00454936331822 pi_0002_0006
 - 0.00432115573749 pi_0002_0007 - 0.00409302574096 pi_0002_0008
 - 0.00386497337093 pi_0002_0009 - 0.00363699866947 pi_0002_0010
 - 0.0034091016785 pi_0002_0011 - 0.00318128243973 pi_0002_0012
 - 0.0029535409947 pi_0002_0013 - 0.00272587738475 pi_0002_0014
 - 0.00249829165104 pi_0002_0015 - 0.00227078383456 pi_0002_0016
 - 0.00204335397609 pi_0002_0017 - 0.00181600211624 pi_0002_0018
 - 0.00158872829543 pi_0002_0019 - 0.00136153255391 pi_0002_0020
 - 0.00113441493173 pi_0002_0021 - 0.000907375468758 pi_0002_0022
 - 0.000680414204684 pi_0002_0023 - 0.000453531179015 pi_0002_0024
 - 0.000226726431073 pi_0002_0025 >= 0
C_0058_cost_0003: cost_0058 >= 0
C_0058_cost_0004: cost_0058 >= 0
C_0058_cost_0005: cost_0058 >= 0
C_0058_cost_0006: cost_0058 >= 0
C_0058_cost_0007: cost_0058 >= 0
C_0058_cost_0008: cost_0058 >= 0
C_0058_cost_0009: cost_0058 >= 0
C_0058_cost_0010: cost_0058 >= 0
C_0058_cost_0011: cost_0058 >= 0
C_0058_cost_0012: cost_0058 >= 0
C_0058_cost_0013: cost_0058 >= 0
C_0058_cost_0014: cost_0058 >= 0
C_0058_cost_0015: cost_0058 >= 0
C_0058_cost_0016: cost_0058 >= 0
C_0058_cost_0017: cost_0058 >= 0
C_0058_cost_0018: cost_0058 >= 0
C_0058_cost_0019: cost_0058 >= 0
C_0058_cost_0020: cost_0058 >= 0
C_0058_cost_0021: cost_0058 >= 0
C_0058_cost_0022: cost_0058 >= 0
C_0058_cost_0023: cost_0058 >= 0
C_0058_cost_0024: cost_0058 >= 0
C_0058_cost_0025: cost_0058 >= 0
C_0058_cost_0026: cost_0058 - 0.0106666652041 pi_0026_0000 >= 0
C_0058_cost_0027: cost_0058 >= 0
C_0058_cost_0028: cost_0058 >= 0
C_0058_cost_0029: cost_0058 - 0.426666385001 pi_0029_0000 >= 0
C_0058_cost_0030: cost_0058 >= 0
C_0058_cost_0031: cost_0058 >= 0
C_0058_cost_0032: cost_0058 >= 0
C_0058_cost_0033: cost_0058 >= 0
C_0058_cost_0034: cost_0058 >= 0
C_0058_cost_0035: cost_0058 >= 0
C_0058_cost_0036: cost_0058 >= 0
C_0058_linear_0000: - act_0000 + xi_0058_0000 = 28
C_0058_linear_0001: - act_0001 + xi_0058_0001 = 18
C_0058_linear_0002: - act_0002 + xi_0058_0002 = 2278
C_0058_linear_0003: - act_0003 + xi_0058_0003 = 3
C_0058_linear_0004: - act_0004 + xi_0058_0004 = 3
C_0058_linear_0005: - act_0005 + xi_0058_0005 = 2
C_0058_linear_0006: - act_0006 + xi_0058_0006 = 0
C_0058_linear_0007: - act_0007 + xi_0058_0007 = 0
C_0058_linear_0008: - act_0008 + xi_0058_0008 = 1
C_0058_linear_0009: - act_0009 + xi_0058_0009 = 0
C_0058_linear_0010: - act_0010 + xi_0058_0010 = 0
C_0058_linear_0011: - act_0011 + xi_0058_0011 = 0
C_0058_linear_0012: - act_0012 + xi_0058_0012 = 0
C_0058_linear_0013: - act_0013 + xi_0058_0013 = 0
C_0058_linear_0014: - act_0014 + xi_0058_0014 = 1
C_0058_linear_0015: - act_0015 + xi_0058_0015 = 0
C_0058_linear_0016: - act_0016 + xi_0058_0016 = 0
C_0058_linear_0017: - act_0017 + xi_0058_0017 = 1
C_0058_linear_0018: - act_0018 + xi_0058_0018 = 0
C_0058_linear_0019: - act_0019 + xi_0058_0019 = 0
C_0058_linear_0020: - act_0020 + xi_0058_0020 = 0
C_0058_linear_0021: - act_0021 + xi_0058_0021 = 0
C_0058_linear_0022: - act_0022 + xi_0058_0022 = 0
C_0058_linear_0023: - act_0023 + xi_0058_0023 = 1
C_0058_linear_0024: - act_0024 + xi_0058_0024 = 0
C_0058_linear_0025: - act_0025 + xi_0058_0025 = 0
C_0058_linear_0026: - act_0026 + xi_0058_0026 = 0
C_0058_linear_0027: - act_0027 + xi_0058_0027 = 0
C_0058_linear_0028: - act_0028 + xi_0058_0028 = 1
C_0058_linear_0029: - act_0029 + xi_0058_0029 = 0
C_0058_linear_0030: - act_0030 + xi_0058_0030 = 0
C_0058_linear_0031: - act_0031 + xi_0058_0031 = 0
C_0058_linear_0032: - act_0032 + xi_0058_0032 = 1
C_0058_linear_0033: - act_0033 + xi_0058_0033 = 0
C_0058_linear_0034: - act_0034 + xi_0058_0034 = 0
C_0058_linear_0035: - act_0035 + xi_0058_0035 = 1
C_0058_linear_0036: - act_0036 + xi_0058_0036 = 0
C_0058_linear_0037: - act_0037 + xi_0058_0037 = 0
C_0058_linear_0038: - act_0038 + xi_0058_0038 = 0
C_0058_linear_0039: - act_0039 + xi_0058_0039 = 0
C_0058_loss_ge: - 10000 omg_0058 - 0.0111828930987 xi_0058_0000
 + 0.0316585861132 xi_0058_0001 + 0.000106039552982 xi_0058_0002
 + 0.2872356913 xi_0058_0003 + 0.013030358965 xi_0058_0004
 + 0.240120705533 xi_0058_0005 + 0.442580447937 xi_0058_0006
 - 0.375980671537 xi_0058_0007 + 0.392374151169 xi_0058_0008
 + 1.06701819784 xi_0058_0009 - 0.942756746323 xi_0058_0010
 + 0.412027349402 xi_0058_0011 + 0.570359951286 xi_0058_0012
 - 0.852905494999 xi_0058_0013 - 0.323418189169 xi_0058_0014
 + 0.252938924417 xi_0058_0015 - 0.0388599557068 xi_0058_0016
 - 0.020417849004 xi_0058_0017 - 0.119001175529 xi_0058_0018
 + 0.47399163059 xi_0058_0019 - 0.445604107063 xi_0058_0020
 - 0.0184582213876 xi_0058_0021 + 0.307589905785 xi_0058_0022
 + 0.444474821864 xi_0058_0023 - 0.187382383206 xi_0058_0024
 + 0.383302875585 xi_0058_0025 - 0.750161596334 xi_0058_0026
 - 1.33170117681 xi_0058_0027 + 0.0190658885385 xi_0058_0028
 - 0.745784276999 xi_0058_0029 - 0.516231038044 xi_0058_0030
 - 0.409255825925 xi_0058_0031 - 0.0994375517393 xi_0058_0032
 - 0.734256048841 xi_0058_0033 - 0.253933375138 xi_0058_0034
 - 0.256674950149 xi_0058_0035 - 0.732341101218 xi_0058_0036
 - 0.86707443001 xi_0058_0037 - 0.319117177314 xi_0058_0038
 + 0.0697086420108 xi_0058_0039 >= -9998.75705057
C_0058_loss_le: - 10000 omg_0058 - 0.0111828930987 xi_0058_0000
 + 0.0316585861132 xi_0058_0001 + 0.000106039552982 xi_0058_0002
 + 0.2872356913 xi_0058_0003 + 0.013030358965 xi_0058_0004
 + 0.240120705533 xi_0058_0005 + 0.442580447937 xi_0058_0006
 - 0.375980671537 xi_0058_0007 + 0.392374151169 xi_0058_0008
 + 1.06701819784 xi_0058_0009 - 0.942756746323 xi_0058_0010
 + 0.412027349402 xi_0058_0011 + 0.570359951286 xi_0058_0012
 - 0.852905494999 xi_0058_0013 - 0.323418189169 xi_0058_0014
 + 0.252938924417 xi_0058_0015 - 0.0388599557068 xi_0058_0016
 - 0.020417849004 xi_0058_0017 - 0.119001175529 xi_0058_0018
 + 0.47399163059 xi_0058_0019 - 0.445604107063 xi_0058_0020
 - 0.0184582213876 xi_0058_0021 + 0.307589905785 xi_0058_0022
 + 0.444474821864 xi_0058_0023 - 0.187382383206 xi_0058_0024
 + 0.383302875585 xi_0058_0025 - 0.750161596334 xi_0058_0026
 - 1.33170117681 xi_0058_0027 + 0.0190658885385 xi_0058_0028
 - 0.745784276999 xi_0058_0029 - 0.516231038044 xi_0058_0030
 - 0.409255825925 xi_0058_0031 - 0.0994375517393 xi_0058_0032
 - 0.734256048841 xi_0058_0033 - 0.253933375138 xi_0058_0034
 - 0.256674950149 xi_0058_0035 - 0.732341101218 xi_0058_0036
 - 0.86707443001 xi_0058_0037 - 0.319117177314 xi_0058_0038
 + 0.0697086420108 xi_0058_0039 <= 1.24294941651
C_0059_cost_0001: cost_0059 - 0.0639671434312 pi_0001_0000
 - 0.0315831062354 pi_0001_0001 >= 0
C_0059_cost_0002: cost_0059 - 0.00596648432652 pi_0002_0000
 - 0.00573604604431 pi_0002_0001 - 0.00550568403775 pi_0002_0002
 - 0.00527539835466 pi_0002_0003 - 0.00504518904266 pi_0002_0004
 - 0.00481505614918 pi_0002_0005 - 0.00458499972143 pi_0002_0006
 - 0.00435501980647 pi_0002_0007 - 0.00412511645112 pi_0002_0008
 - 0.00389528970205 pi_0002_0009 - 0.00366553960571 pi_0002_0010
 - 0.00343586620836 pi_0002_0011 - 0.00320626955607 pi_0002_0012
 - 0.00297674969473 pi_0002_0013 - 0.00274730667001 pi_0002_0014
 - 0.00251794052743 pi_0002_0015 - 0.00228865131227 pi_0002_0016
 - 0.00205943906966 pi_0002_0017 - 0.00183030384451 pi_0002_0018
 - 0.00160124568156 pi_0002_0019 - 0.00137226462535 pi_0002_0020
 - 0.00114336072023 pi_0002_0021 - 0.000914534010361 pi_0002_0022
 - 0.000685784539715 pi_0002_0023 - 0.000457112352076 pi_0002_0024
 - 0.000228517491035 pi_0002_0025 >= 0
C_0059_cost_0003: cost_0059 >= 0
C_0059_cost_0004: cost_0059 >= 0
C_0059_cost_0005: cost_0059 >= 0
C_0059_cost_0006: cost_0059 >= 0
C_0059_cost_0007: cost_0059 >= 0
C_0059_cost_0008: cost_0059 >= 0
C_0059_cost_0009: cost_0059 >= 0
C_0059_cost_0010: cost_0059 >= 0
C_0059_cost_0011: cost_0059 >= 0
C_0059_cost_0012: cost_0059 >= 0
C_0059_cost_0013: cost_0059 >= 0
C_0059_cost_0014: cost_0059 >= 0
C_0059_cost_0015: cost_0059 >= 0
C_0059_cost_0016: cost_0059 >= 0
C_0059_cost_0017: cost_0059 >= 0
C_0059_cost_0018: cost_0059 >= 0
C_0059_cost_0019: cost_0059 >= 0
C_0059_cost_0020: cost_0059 >= 0
C_0059_cost_0021: cost_0059 >= 0
C_0059_cost_0022: cost_0059 >= 0
C_0059_cost_0023: cost_0059 >= 0
C_0059_cost_0024: cost_0059 >= 0
C_0059_cost_0025: cost_0059 >= 0
C_0059_cost_0026: cost_0059 - 0.0106666652041 pi_0026_0000 >= 0
C_0059_cost_0027: cost_0059 >= 0
C_0059_cost_0028: cost_0059 >= 0
C_0059_cost_0029: cost_0059 - 0.426666385001 pi_0029_0000 >= 0
C_0059_cost_0030: cost_0059 >= 0
C_0059_cost_0031: cost_0059 >= 0
C_0059_cost_0032: cost_0059 >= 0
C_0059_cost_0033: cost_0059 >= 0
C_0059_cost_0034: cost_0059 >= 0
C_0059_cost_0035: cost_0059 >= 0
C_0059_cost_0036: cost_0059 >= 0
C_0059_linear_0000: - act_0000 + xi_0059_0000 = 54
C_0059_linear_0001: - act_0001 + xi_0059_0001 = 24
C_0059_linear_0002: - act_0002 + xi_0059_0002 = 2255
C_0059_linear_0003: - act_0003 + xi_0059_0003 = 4
C_0059_linear_0004: - act_0004 + xi_0059_0004 = 1
C_0059_linear_0005: - act_0005 + xi_0059_0005 = 1
C_0059_linear_0006: - act_0006 + xi_0059_0006 = 0
C_0059_linear_0007: - act_0007 + xi_0059_0007 = 0
C_0059_linear_0008: - act_0008 + xi_0059_0008 = 1
C_0059_linear_0009: - act_0009 + xi_0059_0009 = 0
C_0059_linear_0010: - act_0010 + xi_0059_0010 = 0
C_0059_linear_0011: - act_0011 + xi_0059_0011 = 0
C_0059_linear_0012: - act_0012 + xi_0059_0012 = 0
C_0059_linear_0013: - act_0013 + xi_0059_0013 = 0
C_0059_linear_0014: - act_0014 + xi_0059_0014 = 1
C_0059_linear_0015: - act_0015 + xi_0059_0015 = 0
C_0059_linear_0016: - act_0016 + xi_0059_0016 = 0
C_0059_linear_0017: - act_0017 + xi_0059_0017 = 1
C_0059_linear_0018: - act_0018 + xi_0059_0018 = 0
C_0059_linear_0019: - act_0019 + xi_0059_0019 = 0
C_0059_linear_0020: - act_0020 + xi_0059_0020 = 0
C_0059_linear_0021: - act_0021 + xi_0059_0021 = 0
C_0059_linear_0022: - act_0022 + xi_0059_0022 = 0
C_0059_linear_0023: - act_0023 + xi_0059_0023 = 1
C_0059_linear_0024: - act_0024 + xi_0059_0024 = 0
C_0059_linear_0025: - act_0025 + xi_0059_0025 = 0
C_0059_linear_0026: - act_0026 + xi_0059_0026 = 0
C_0059_linear_0027: - act_0027 + xi_0059_0027 = 0
C_0059_linear_0028: - act_0028 + xi_0059_0028 = 1
C_0059_linear_0029: - act_0029 + xi_0059_0029 = 0
C_0059_linear_0030: - act_0030 + xi_0059_0030 = 0
C_0059_linear_0031: - act_0031 + xi_0059_0031 = 1
C_0059_linear_0032: - act_0032 + xi_0059_0032 = 0
C_0059_linear_0033: - act_0033 + xi_0059_0033 = 0
C_0059_linear_0034: - act_0034 + xi_0059_0034 = 1
C_0059_linear_0035: - act_0035 + xi_0059_0035 = 0
C_0059_linear_0036: - act_0036 + xi_0059_0036 = 0
C_0059_linear_0037: - act_0037 + xi_0059_0037 = 0
C_0059_linear_0038: - act_0038 + xi_0059_0038 = 1
C_0059_linear_0039: - act_0039 + xi_0059_0039 = 1
C_0059_loss_ge: - 10000 omg_0059 - 0.0111828930987 xi_0059_0000
 + 0.0316585861132 xi_0059_0001 + 0.000106039552982 xi_0059_0002
 + 0.2872356913 xi_0059_0003 + 0.013030358965 xi_0059_0004
 + 0.240120705533 xi_0059_0005 + 0.442580447937 xi_0059_0006
 - 0.375980671537 xi_0059_0007 + 0.392374151169 xi_0059_0008
 + 1.06701819784 xi_0059_0009 - 0.942756746323 xi_0059_0010
 + 0.412027349402 xi_0059_0011 + 0.570359951286 xi_0059_0012
 - 0.852905494999 xi_0059_0013 - 0.323418189169 xi_0059_0014
 + 0.252938924417 xi_0059_0015 - 0.0388599557068 xi_0059_0016
 - 0.020417849004 xi_0059_0017 - 0.119001175529 xi_0059_0018
 + 0.47399163059 xi_0059_0019 - 0.445604107063 xi_0059_0020
 - 0.0184582213876 xi_0059_0021 + 0.307589905785 xi_0059_0022
 + 0.444474821864 xi_0059_0023 - 0.187382383206 xi_0059_0024
 + 0.383302875585 xi_0059_0025 - 0.750161596334 xi_0059_0026
 - 1.33170117681 xi_0059_0027 + 0.0190658885385 xi_0059_0028
 - 0.745784276999 xi_0059_0029 - 0.516231038044 xi_0059_0030
 - 0.409255825925 xi_0059_0031 - 0.0994375517393 xi_0059_0032
 - 0.734256048841 xi_0059_0033 - 0.253933375138 xi_0059_0034
 - 0.256674950149 xi_0059_0035 - 0.732341101218 xi_0059_0036
 - 0.86707443001 xi_0059_0037 - 0.319117177314 xi_0059_0038
 + 0.0697086420108 xi_0059_0039 >= -9998.75705057
C_0059_loss_le: - 10000 omg_0059 - 0.0111828930987 xi_0059_0000
 + 0.0316585861132 xi_0059_0001 + 0.000106039552982 xi_0059_0002
 + 0.2872356913 xi_0059_0003 + 0.013030358965 xi_0059_0004
 + 0.240120705533 xi_0059_0005 + 0.442580447937 xi_0059_0006
 - 0.375980671537 xi_0059_0007 + 0.392374151169 xi_0059_0008
 + 1.06701819784 xi_0059_0009 - 0.942756746323 xi_0059_0010
 + 0.412027349402 xi_0059_0011 + 0.570359951286 xi_0059_0012
 - 0.852905494999 xi_0059_0013 - 0.323418189169 xi_0059_0014
 + 0.252938924417 xi_0059_0015 - 0.0388599557068 xi_0059_0016
 - 0.020417849004 xi_0059_0017 - 0.119001175529 xi_0059_0018
 + 0.47399163059 xi_0059_0019 - 0.445604107063 xi_0059_0020
 - 0.0184582213876 xi_0059_0021 + 0.307589905785 xi_0059_0022
 + 0.444474821864 xi_0059_0023 - 0.187382383206 xi_0059_0024
 + 0.383302875585 xi_0059_0025 - 0.750161596334 xi_0059_0026
 - 1.33170117681 xi_0059_0027 + 0.0190658885385 xi_0059_0028
 - 0.745784276999 xi_0059_0029 - 0.516231038044 xi_0059_0030
 - 0.409255825925 xi_0059_0031 - 0.0994375517393 xi_0059_0032
 - 0.734256048841 xi_0059_0033 - 0.253933375138 xi_0059_0034
 - 0.256674950149 xi_0059_0035 - 0.732341101218 xi_0059_0036
 - 0.86707443001 xi_0059_0037 - 0.319117177314 xi_0059_0038
 + 0.0697086420108 xi_0059_0039 <= 1.24294941651
C_0060_cost_0001: cost_0060 - 0.0639671434312 pi_0001_0000
 - 0.0315831062354 pi_0001_0001 >= 0
C_0060_cost_0002: cost_0060 - 0.00118304280323 pi_0002_0000
 - 0.00113747140416 pi_0002_0001 - 0.00109190572882 pi_0002_0002
 - 0.00104634575899 pi_0002_0003 - 0.00100079147649 pi_0002_0004
 - 0.000955242863195 pi_0002_0005 - 0.000909699901037 pi_0002_0006
 - 0.000864162571986 pi_0002_0007 - 0.000818630858066 pi_0002_0008
 - 0.000773104741351 pi_0002_0009 - 0.000727584203964 pi_0002_0010
 - 0.000682069228079 pi_0002_0011 - 0.000636559795917 pi_0002_0012
 - 0.000591055889753 pi_0002_0013 - 0.000545557491907 pi_0002_0014
 - 0.000500064584752 pi_0002_0015 - 0.000454577150711 pi_0002_0016
 - 0.000409095172254 pi_0002_0017 - 0.000363618631903 pi_0002_0018
 - 0.000318147512231 pi_0002_0019 - 0.000272681795858 pi_0002_0020
 - 0.000227221465456 pi_0002_0021 - 0.000181766503746 pi_0002_0022
 - 0.000136316893499 pi_0002_0023 - 9.08726175364e-05 pi_0002_0024
 - 4.54336587298e-05 pi_0002_0025 >= 0
C_0060_cost_0003: cost_0060 >= 0
C_0060_cost_0004: cost_0060 >= 0
C_0060_cost_0005: cost_0060 >= 0
C_0060_cost_0006: cost_0060 >= 0
C_0060_cost_0007: cost_0060 >= 0
C_0060_cost_0008: cost_0060 >= 0
C_0060_cost_0009: cost_0060 >= 0
C_0060_cost_0010: cost_0060 >= 0
C_0060_cost_0011: cost_0060 >= 0
C_0060_cost_0012: cost_0060 >= 0
C_0060_cost_0013: cost_0060 >= 0
C_0060_cost_0014: cost_0060 >= 0
C_0060_cost_0015: cost_0060 >= 0
C_0060_cost_0016: cost_0060 >= 0
C_0060_cost_0017: cost_0060 >= 0
C_0060_cost_0018: cost_0060 >= 0
C_0060_cost_0019: cost_0060 >= 0
C_0060_cost_0020: cost_0060 >= 0
C_0060_cost_0021: cost_0060 >= 0
C_0060_cost_0022: cost_0060 >= 0
C_0060_cost_0023: cost_0060 >= 0
C_0060_cost_0024: cost_0060 >= 0
C_0060_cost_0025: cost_0060 >= 0
C_0060_cost_0026: cost_0060 - 0.0106666652041 pi_0026_0000 >= 0
C_0060_cost_0027: cost_0060 >= 0
C_0060_cost_0028: cost_0060 >= 0
C_0060_cost_0029: cost_0060 - 0.426666385001 pi_0029_0000 >= 0
C_0060_cost_0030: cost_0060 >= 0
C_0060_cost_0031: cost_0060 >= 0
C_0060_cost_0032: cost_0060 >= 0
C_0060_cost_0033: cost_0060 >= 0
C_0060_cost_0034: cost_0060 >= 0
C_0060_cost_0035: cost_0060 >= 0
C_0060_cost_0036: cost_0060 >= 0
C_0060_linear_0000: - act_0000 + xi_0060_0000 = 24
C_0060_linear_0001: - act_0001 + xi_0060_0001 = 24
C_0060_linear_0002: - act_0002 + xi_0060_0002 = 5743
C_0060_linear_0003: - act_0003 + xi_0060_0003 = 2
C_0060_linear_0004: - act_0004 + xi_0060_0004 = 4
C_0060_linear_0005: - act_0005 + xi_0060_0005 = 2
C_0060_linear_0006: - act_0006 + xi_0060_0006 = 0
C_0060_linear_0007: - act_0007 + xi_0060_0007 = 1
C_0060_linear_0008: - act_0008 + xi_0060_0008 = 1
C_0060_linear_0009: - act_0009 + xi_0060_0009 = 0
C_0060_linear_0010: - act_0010 + xi_0060_0010 = 1
C_0060_linear_0011: - act_0011 + xi_0060_0011 = 0
C_0060_linear_0012: - act_0012 + xi_0060_0012 = 0
C_0060_linear_0013: - act_0013 + xi_0060_0013 = 0
C_0060_linear_0014: - act_0014 + xi_0060_0014 = 0
C_0060_linear_0015: - act_0015 + xi_0060_0015 = 0
C_0060_linear_0016: - act_0016 + xi_0060_0016 = 0
C_0060_linear_0017: - act_0017 + xi_0060_0017 = 1
C_0060_linear_0018: - act_0018 + xi_0060_0018 = 0
C_0060_linear_0019: - act_0019 + xi_0060_0019 = 1
C_0060_linear_0020: - act_0020 + xi_0060_0020 = 0
C_0060_linear_0021: - act_0021 + xi_0060_0021 = 0
C_0060_linear_0022: - act_0022 + xi_0060_0022 = 0
C_0060_linear_0023: - act_0023 + xi_0060_0023 = 0
C_0060_linear_0024: - act_0024 + xi_0060_0024 = 0
C_0060_linear_0025: - act_0025 + xi_0060_0025 = 0
C_0060_linear_0026: - act_0026 + xi_0060_0026 = 0
C_0060_linear_0027: - act_0027 + xi_0060_0027 = 0
C_0060_linear_0028: - act_0028 + xi_0060_0028 = 1
C_0060_linear_0029: - act_0029 + xi_0060_0029 = 0
C_0060_linear_0030: - act_0030 + xi_0060_0030 = 0
C_0060_linear_0031: - act_0031 + xi_0060_0031 = 0
C_0060_linear_0032: - act_0032 + xi_0060_0032 = 1
C_0060_linear_0033: - act_0033 + xi_0060_0033 = 0
C_0060_linear_0034: - act_0034 + xi_0060_0034 = 1
C_0060_linear_0035: - act_0035 + xi_0060_0035 = 0
C_0060_linear_0036: - act_0036 + xi_0060_0036 = 0
C_0060_linear_0037: - act_0037 + xi_0060_0037 = 0
C_0060_linear_0038: - act_0038 + xi_0060_0038 = 0
C_0060_linear_0039: - act_0039 + xi_0060_0039 = 0
C_0060_loss_ge: - 10000 omg_0060 - 0.0111828930987 xi_0060_0000
 + 0.0316585861132 xi_0060_0001 + 0.000106039552982 xi_0060_0002
 + 0.2872356913 xi_0060_0003 + 0.013030358965 xi_0060_0004
 + 0.240120705533 xi_0060_0005 + 0.442580447937 xi_0060_0006
 - 0.375980671537 xi_0060_0007 + 0.392374151169 xi_0060_0008
 + 1.06701819784 xi_0060_0009 - 0.942756746323 xi_0060_0010
 + 0.412027349402 xi_0060_0011 + 0.570359951286 xi_0060_0012
 - 0.852905494999 xi_0060_0013 - 0.323418189169 xi_0060_0014
 + 0.252938924417 xi_0060_0015 - 0.0388599557068 xi_0060_0016
 - 0.020417849004 xi_0060_0017 - 0.119001175529 xi_0060_0018
 + 0.47399163059 xi_0060_0019 - 0.445604107063 xi_0060_0020
 - 0.0184582213876 xi_0060_0021 + 0.307589905785 xi_0060_0022
 + 0.444474821864 xi_0060_0023 - 0.187382383206 xi_0060_0024
 + 0.383302875585 xi_0060_0025 - 0.750161596334 xi_0060_0026
 - 1.33170117681 xi_0060_0027 + 0.0190658885385 xi_0060_0028
 - 0.745784276999 xi_0060_0029 - 0.516231038044 xi_0060_0030
 - 0.409255825925 xi_0060_0031 - 0.0994375517393 xi_0060_0032
 - 0.734256048841 xi_0060_0033 - 0.253933375138 xi_0060_0034
 - 0.256674950149 xi_0060_0035 - 0.732341101218 xi_0060_0036
 - 0.86707443001 xi_0060_0037 - 0.319117177314 xi_0060_0038
 + 0.0697086420108 xi_0060_0039 >= -9998.75705057
C_0060_loss_le: - 10000 omg_0060 - 0.0111828930987 xi_0060_0000
 + 0.0316585861132 xi_0060_0001 + 0.000106039552982 xi_0060_0002
 + 0.2872356913 xi_0060_0003 + 0.013030358965 xi_0060_0004
 + 0.240120705533 xi_0060_0005 + 0.442580447937 xi_0060_0006
 - 0.375980671537 xi_0060_0007 + 0.392374151169 xi_0060_0008
 + 1.06701819784 xi_0060_0009 - 0.942756746323 xi_0060_0010
 + 0.412027349402 xi_0060_0011 + 0.570359951286 xi_0060_0012
 - 0.852905494999 xi_0060_0013 - 0.323418189169 xi_0060_0014
 + 0.252938924417 xi_0060_0015 - 0.0388599557068 xi_0060_0016
 - 0.020417849004 xi_0060_0017 - 0.119001175529 xi_0060_0018
 + 0.47399163059 xi_0060_0019 - 0.445604107063 xi_0060_0020
 - 0.0184582213876 xi_0060_0021 + 0.307589905785 xi_0060_0022
 + 0.444474821864 xi_0060_0023 - 0.187382383206 xi_0060_0024
 + 0.383302875585 xi_0060_0025 - 0.750161596334 xi_0060_0026
 - 1.33170117681 xi_0060_0027 + 0.0190658885385 xi_0060_0028
 - 0.745784276999 xi_0060_0029 - 0.516231038044 xi_0060_0030
 - 0.409255825925 xi_0060_0031 - 0.0994375517393 xi_0060_0032
 - 0.734256048841 xi_0060_0033 - 0.253933375138 xi_0060_0034
 - 0.256674950149 xi_0060_0035 - 0.732341101218 xi_0060_0036
 - 0.86707443001 xi_0060_0037 - 0.319117177314 xi_0060_0038
 + 0.0697086420108 xi_0060_0039 <= 1.24294941651
C_0061_cost_0001: cost_0061 - 0.0873361949203 pi_0001_0000
 - 0.0442906580929 pi_0001_0001 >= 0
C_0061_cost_0002: cost_0061 - 0.0063309238478 pi_0002_0000
 - 0.0060884571077 pi_0002_0001 - 0.00584590634463 pi_0002_0002
 - 0.0056032717575 pi_0002_0003 - 0.00536055354533 pi_0002_0004
 - 0.00511775190727 pi_0002_0005 - 0.00487486704258 pi_0002_0006
 - 0.00463189915062 pi_0002_0007 - 0.00438884843088 pi_0002_0008
 - 0.00414571508295 pi_0002_0009 - 0.00390249930656 pi_0002_0010
 - 0.00365920130152 pi_0002_0011 - 0.00341582126776 pi_0002_0012
 - 0.00317235940532 pi_0002_0013 - 0.00292881591437 pi_0002_0014
 - 0.00268519099516 pi_0002_0015 - 0.00244148484805 pi_0002_0016
 - 0.00219769767353 pi_0002_0017 - 0.00195382967219 pi_0002_0018
 - 0.0017098810447 pi_0002_0019 - 0.00146585199186 pi_0002_0020
 - 0.00122174271457 pi_0002_0021 - 0.000977553413828 pi_0002_0022
 - 0.000733284290745 pi_0002_0023 - 0.000488935546524 pi_0002_0024
 - 0.000244507382473 pi_0002_0025 >= 0
C_0061_cost_0003: cost_0061 >= 0
C_0061_cost_0004: cost_0061 >= 0
C_0061_cost_0005: cost_0061 >= 0
C_0061_cost_0006: cost_0061 >= 0
C_0061_cost_0007: cost_0061 >= 0
C_0061_cost_0008: cost_0061 >= 0
C_0061_cost_0009: cost_0061 >= 0
C_0061_cost_0010: cost_0061 >= 0
C_0061_cost_0011: cost_0061 >= 0
C_0061_cost_0012: cost_0061 >= 0
C_0061_cost_0013: cost_0061 >= 0
C_0061_cost_0014: cost_0061 >= 0
C_0061_cost_0015: cost_0061 >= 0
C_0061_cost_0016: cost_0061 >= 0
C_0061_cost_0017: cost_0061 >= 0
C_0061_cost_0018: cost_0061 >= 0
C_0061_cost_0019: cost_0061 >= 0
C_0061_cost_0020: cost_0061 >= 0
C_0061_cost_0021: cost_0061 >= 0
C_0061_cost_0022: cost_0061 >= 0
C_0061_cost_0023: cost_0061 >= 0
C_0061_cost_0024: cost_0061 >= 0
C_0061_cost_0025: cost_0061 >= 0
C_0061_cost_0026: cost_0061 - 0.0106666652041 pi_0026_0000 >= 0
C_0061_cost_0027: cost_0061 >= 0
C_0061_cost_0028: cost_0061 >= 0
C_0061_cost_0029: cost_0061 - 0.426666385001 pi_0029_0000 >= 0
C_0061_cost_0030: cost_0061 >= 0
C_0061_cost_0031: cost_0061 >= 0
C_0061_cost_0032: cost_0061 >= 0
C_0061_cost_0033: cost_0061 >= 0
C_0061_cost_0034: cost_0061 >= 0
C_0061_cost_0035: cost_0061 >= 0
C_0061_cost_0036: cost_0061 >= 0
C_0061_linear_0000: - act_0000 + xi_0061_0000 = 23
C_0061_linear_0001: - act_0001 + xi_0061_0001 = 12
C_0061_linear_0002: - act_0002 + xi_0061_0002 = 1200
C_0061_linear_0003: - act_0003 + xi_0061_0003 = 4
C_0061_linear_0004: - act_0004 + xi_0061_0004 = 4
C_0061_linear_0005: - act_0005 + xi_0061_0005 = 1
C_0061_linear_0006: - act_0006 + xi_0061_0006 = 0
C_0061_linear_0007: - act_0007 + xi_0061_0007 = 1
C_0061_linear_0008: - act_0008 + xi_0061_0008 = 1
C_0061_linear_0009: - act_0009 + xi_0061_0009 = 0
C_0061_linear_0010: - act_0010 + xi_0061_0010 = 0
C_0061_linear_0011: - act_0011 + xi_0061_0011 = 1
C_0061_linear_0012: - act_0012 + xi_0061_0012 = 0
C_0061_linear_0013: - act_0013 + xi_0061_0013 = 0
C_0061_linear_0014: - act_0014 + xi_0061_0014 = 0
C_0061_linear_0015: - act_0015 + xi_0061_0015 = 1
C_0061_linear_0016: - act_0016 + xi_0061_0016 = 0
C_0061_linear_0017: - act_0017 + xi_0061_0017 = 1
C_0061_linear_0018: - act_0018 + xi_0061_0018 = 0
C_0061_linear_0019: - act_0019 + xi_0061_0019 = 1
C_0061_linear_0020: - act_0020 + xi_0061_0020 = 0
C_0061_linear_0021: - act_0021 + xi_0061_0021 = 0
C_0061_linear_0022: - act_0022 + xi_0061_0022 = 0
C_0061_linear_0023: - act_0023 + xi_0061_0023 = 0
C_0061_linear_0024: - act_0024 + xi_0061_0024 = 0
C_0061_linear_0025: - act_0025 + xi_0061_0025 = 0
C_0061_linear_0026: - act_0026 + xi_0061_0026 = 0
C_0061_linear_0027: - act_0027 + xi_0061_0027 = 0
C_0061_linear_0028: - act_0028 + xi_0061_0028 = 0
C_0061_linear_0029: - act_0029 + xi_0061_0029 = 0
C_0061_linear_0030: - act_0030 + xi_0061_0030 = 1
C_0061_linear_0031: - act_0031 + xi_0061_0031 = 1
C_0061_linear_0032: - act_0032 + xi_0061_0032 = 0
C_0061_linear_0033: - act_0033 + xi_0061_0033 = 0
C_0061_linear_0034: - act_0034 + xi_0061_0034 = 1
C_0061_linear_0035: - act_0035 + xi_0061_0035 = 0
C_0061_linear_0036: - act_0036 + xi_0061_0036 = 0
C_0061_linear_0037: - act_0037 + xi_0061_0037 = 0
C_0061_linear_0038: - act_0038 + xi_0061_0038 = 0
C_0061_linear_0039: - act_0039 + xi_0061_0039 = 0
C_0061_loss_ge: - 10000 omg_0061 - 0.0111828930987 xi_0061_0000
 + 0.0316585861132 xi_0061_0001 + 0.000106039552982 xi_0061_0002
 + 0.2872356913 xi_0061_0003 + 0.013030358965 xi_0061_0004
 + 0.240120705533 xi_0061_0005 + 0.442580447937 xi_0061_0006
 - 0.375980671537 xi_0061_0007 + 0.392374151169 xi_0061_0008
 + 1.06701819784 xi_0061_0009 - 0.942756746323 xi_0061_0010
 + 0.412027349402 xi_0061_0011 + 0.570359951286 xi_0061_0012
 - 0.852905494999 xi_0061_0013 - 0.323418189169 xi_0061_0014
 + 0.252938924417 xi_0061_0015 - 0.0388599557068 xi_0061_0016
 - 0.020417849004 xi_0061_0017 - 0.119001175529 xi_0061_0018
 + 0.47399163059 xi_0061_0019 - 0.445604107063 xi_0061_0020
 - 0.0184582213876 xi_0061_0021 + 0.307589905785 xi_0061_0022
 + 0.444474821864 xi_0061_0023 - 0.187382383206 xi_0061_0024
 + 0.383302875585 xi_0061_0025 - 0.750161596334 xi_0061_0026
 - 1.33170117681 xi_0061_0027 + 0.0190658885385 xi_0061_0028
 - 0.745784276999 xi_0061_0029 - 0.516231038044 xi_0061_0030
 - 0.409255825925 xi_0061_0031 - 0.0994375517393 xi_0061_0032
 - 0.734256048841 xi_0061_0033 - 0.253933375138 xi_0061_0034
 - 0.256674950149 xi_0061_0035 - 0.732341101218 xi_0061_0036
 - 0.86707443001 xi_0061_0037 - 0.319117177314 xi_0061_0038
 + 0.0697086420108 xi_0061_0039 >= -9998.75705057
C_0061_loss_le: - 10000 omg_0061 - 0.0111828930987 xi_0061_0000
 + 0.0316585861132 xi_0061_0001 + 0.000106039552982 xi_0061_0002
 + 0.2872356913 xi_0061_0003 + 0.013030358965 xi_0061_0004
 + 0.240120705533 xi_0061_0005 + 0.442580447937 xi_0061_0006
 - 0.375980671537 xi_0061_0007 + 0.392374151169 xi_0061_0008
 + 1.06701819784 xi_0061_0009 - 0.942756746323 xi_0061_0010
 + 0.412027349402 xi_0061_0011 + 0.570359951286 xi_0061_0012
 - 0.852905494999 xi_0061_0013 - 0.323418189169 xi_0061_0014
 + 0.252938924417 xi_0061_0015 - 0.0388599557068 xi_0061_0016
 - 0.020417849004 xi_0061_0017 - 0.119001175529 xi_0061_0018
 + 0.47399163059 xi_0061_0019 - 0.445604107063 xi_0061_0020
 - 0.0184582213876 xi_0061_0021 + 0.307589905785 xi_0061_0022
 + 0.444474821864 xi_0061_0023 - 0.187382383206 xi_0061_0024
 + 0.383302875585 xi_0061_0025 - 0.750161596334 xi_0061_0026
 - 1.33170117681 xi_0061_0027 + 0.0190658885385 xi_0061_0028
 - 0.745784276999 xi_0061_0029 - 0.516231038044 xi_0061_0030
 - 0.409255825925 xi_0061_0031 - 0.0994375517393 xi_0061_0032
 - 0.734256048841 xi_0061_0033 - 0.253933375138 xi_0061_0034
 - 0.256674950149 xi_0061_0035 - 0.732341101218 xi_0061_0036
 - 0.86707443001 xi_0061_0037 - 0.319117177314 xi_0061_0038
 + 0.0697086420108 xi_0061_0039 <= 1.24294941651
C_0062_cost_0001: cost_0062 - 0.0639671434312 pi_0001_0000
 - 0.0315831062354 pi_0001_0001 >= 0
C_0062_cost_0002: cost_0062 - 0.00631594065719 pi_0002_0000
 - 0.00607406763736 pi_0002_0001 - 0.00583210920553 pi_0002_0002
 - 0.00559006555977 pi_0002_0003 - 0.00534793689827 pi_0002_0004
 - 0.00510572341935 pi_0002_0005 - 0.00486342532145 pi_0002_0006
 - 0.0046210428031 pi_0002_0007 - 0.004378576063 pi_0002_0008
 - 0.00413602529993 pi_0002_0009 - 0.0038933907128 pi_0002_0010
 - 0.00365067250064 pi_0002_0011 - 0.00340787086258 pi_0002_0012
 - 0.00316498599788 pi_0002_0013 - 0.00292201810592 pi_0002_0014
 - 0.00267896738618 pi_0002_0015 - 0.00243583403826 pi_0002_0016
 - 0.00219261826186 pi_0002_0017 - 0.00194932025682 pi_0002_0018
 - 0.00170594022306 pi_0002_0019 - 0.00146247836063 pi_0002_0020
 - 0.00121893486967 pi_0002_0021 - 0.00097530995046 pi_0002_0022
 - 0.000731603803356 pi_0002_0023 - 0.000487816628839 pi_0002_0024
 - 0.000243948627491 pi_0002_0025 >= 0
C_0062_cost_0003: cost_0062 >= 0
C_0062_cost_0004: cost_0062 >= 0
C_0062_cost_0005: cost_0062 >= 0
C_0062_cost_0006: cost_0062 >= 0
C_0062_cost_0007: cost_0062 >= 0
C_0062_cost_0008: cost_0062 >= 0
C_0062_cost_0009: cost_0062 >= 0
C_0062_cost_0010: cost_0062 >= 0
C_0062_cost_0011: cost_0062 >= 0
C_0062_cost_0012: cost_0062 >= 0
C_0062_cost_0013: cost_0062 >= 0
C_0062_cost_0014: cost_0062 >= 0
C_0062_cost_0015: cost_0062 >= 0
C_0062_cost_0016: cost_0062 >= 0
C_0062_cost_0017: cost_0062 >= 0
C_0062_cost_0018: cost_0062 >= 0
C_0062_cost_0019: cost_0062 >= 0
C_0062_cost_0020: cost_0062 >= 0
C_0062_cost_0021: cost_0062 >= 0
C_0062_cost_0022: cost_0062 >= 0
C_0062_cost_0023: cost_0062 >= 0
C_0062_cost_0024: cost_0062 >= 0
C_0062_cost_0025: cost_0062 >= 0
C_0062_cost_0026: cost_0062 - 0.0106666652041 pi_0026_0000 >= 0
C_0062_cost_0027: cost_0062 >= 0
C_0062_cost_0028: cost_0062 >= 0
C_0062_cost_0029: cost_0062 - 0.426666385001 pi_0029_0000 >= 0
C_0062_cost_0030: cost_0062 >= 0
C_0062_cost_0031: cost_0062 >= 0
C_0062_cost_0032: cost_0062 >= 0
C_0062_cost_0033: cost_0062 >= 0
C_0062_cost_0034: cost_0062 >= 0
C_0062_cost_0035: cost_0062 >= 0
C_0062_cost_0036: cost_0062 >= 0
C_0062_linear_0000: - act_0000 + xi_0062_0000 = 29
C_0062_linear_0001: - act_0001 + xi_0062_0001 = 24
C_0062_linear_0002: - act_0002 + xi_0062_0002 = 1193
C_0062_linear_0003: - act_0003 + xi_0062_0003 = 1
C_0062_linear_0004: - act_0004 + xi_0062_0004 = 4
C_0062_linear_0005: - act_0005 + xi_0062_0005 = 2
C_0062_linear_0006: - act_0006 + xi_0062_0006 = 0
C_0062_linear_0007: - act_0007 + xi_0062_0007 = 0
C_0062_linear_0008: - act_0008 + xi_0062_0008 = 1
C_0062_linear_0009: - act_0009 + xi_0062_0009 = 1
C_0062_linear_0010: - act_0010 + xi_0062_0010 = 0
C_0062_linear_0011: - act_0011 + xi_0062_0011 = 0
C_0062_linear_0012: - act_0012 + xi_0062_0012 = 1
C_0062_linear_0013: - act_0013 + xi_0062_0013 = 0
C_0062_linear_0014: - act_0014 + xi_0062_0014 = 0
C_0062_linear_0015: - act_0015 + xi_0062_0015 = 1
C_0062_linear_0016: - act_0016 + xi_0062_0016 = 1
C_0062_linear_0017: - act_0017 + xi_0062_0017 = 0
C_0062_linear_0018: - act_0018 + xi_0062_0018 = 0
C_0062_linear_0019: - act_0019 + xi_0062_0019 = 0
C_0062_linear_0020: - act_0020 + xi_0062_0020 = 0
C_0062_linear_0021: - act_0021 + xi_0062_0021 = 0
C_0062_linear_0022: - act_0022 + xi_0062_0022 = 0
C_0062_linear_0023: - act_0023 + xi_0062_0023 = 1
C_0062_linear_0024: - act_0024 + xi_0062_0024 = 0
C_0062_linear_0025: - act_0025 + xi_0062_0025 = 0
C_0062_linear_0026: - act_0026 + xi_0062_0026 = 0
C_0062_linear_0027: - act_0027 + xi_0062_0027 = 0
C_0062_linear_0028: - act_0028 + xi_0062_0028 = 0
C_0062_linear_0029: - act_0029 + xi_0062_0029 = 0
C_0062_linear_0030: - act_0030 + xi_0062_0030 = 1
C_0062_linear_0031: - act_0031 + xi_0062_0031 = 1
C_0062_linear_0032: - act_0032 + xi_0062_0032 = 0
C_0062_linear_0033: - act_0033 + xi_0062_0033 = 0
C_0062_linear_0034: - act_0034 + xi_0062_0034 = 1
C_0062_linear_0035: - act_0035 + xi_0062_0035 = 0
C_0062_linear_0036: - act_0036 + xi_0062_0036 = 0
C_0062_linear_0037: - act_0037 + xi_0062_0037 = 0
C_0062_linear_0038: - act_0038 + xi_0062_0038 = 0
C_0062_linear_0039: - act_0039 + xi_0062_0039 = 0
C_0062_loss_ge: - 10000 omg_0062 - 0.0111828930987 xi_0062_0000
 + 0.0316585861132 xi_0062_0001 + 0.000106039552982 xi_0062_0002
 + 0.2872356913 xi_0062_0003 + 0.013030358965 xi_0062_0004
 + 0.240120705533 xi_0062_0005 + 0.442580447937 xi_0062_0006
 - 0.375980671537 xi_0062_0007 + 0.392374151169 xi_0062_0008
 + 1.06701819784 xi_0062_0009 - 0.942756746323 xi_0062_0010
 + 0.412027349402 xi_0062_0011 + 0.570359951286 xi_0062_0012
 - 0.852905494999 xi_0062_0013 - 0.323418189169 xi_0062_0014
 + 0.252938924417 xi_0062_0015 - 0.0388599557068 xi_0062_0016
 - 0.020417849004 xi_0062_0017 - 0.119001175529 xi_0062_0018
 + 0.47399163059 xi_0062_0019 - 0.445604107063 xi_0062_0020
 - 0.0184582213876 xi_0062_0021 + 0.307589905785 xi_0062_0022
 + 0.444474821864 xi_0062_0023 - 0.187382383206 xi_0062_0024
 + 0.383302875585 xi_0062_0025 - 0.750161596334 xi_0062_0026
 - 1.33170117681 xi_0062_0027 + 0.0190658885385 xi_0062_0028
 - 0.745784276999 xi_0062_0029 - 0.516231038044 xi_0062_0030
 - 0.409255825925 xi_0062_0031 - 0.0994375517393 xi_0062_0032
 - 0.734256048841 xi_0062_0033 - 0.253933375138 xi_0062_0034
 - 0.256674950149 xi_0062_0035 - 0.732341101218 xi_0062_0036
 - 0.86707443001 xi_0062_0037 - 0.319117177314 xi_0062_0038
 + 0.0697086420108 xi_0062_0039 >= -9998.75705057
C_0062_loss_le: - 10000 omg_0062 - 0.0111828930987 xi_0062_0000
 + 0.0316585861132 xi_0062_0001 + 0.000106039552982 xi_0062_0002
 + 0.2872356913 xi_0062_0003 + 0.013030358965 xi_0062_0004
 + 0.240120705533 xi_0062_0005 + 0.442580447937 xi_0062_0006
 - 0.375980671537 xi_0062_0007 + 0.392374151169 xi_0062_0008
 + 1.06701819784 xi_0062_0009 - 0.942756746323 xi_0062_0010
 + 0.412027349402 xi_0062_0011 + 0.570359951286 xi_0062_0012
 - 0.852905494999 xi_0062_0013 - 0.323418189169 xi_0062_0014
 + 0.252938924417 xi_0062_0015 - 0.0388599557068 xi_0062_0016
 - 0.020417849004 xi_0062_0017 - 0.119001175529 xi_0062_0018
 + 0.47399163059 xi_0062_0019 - 0.445604107063 xi_0062_0020
 - 0.0184582213876 xi_0062_0021 + 0.307589905785 xi_0062_0022
 + 0.444474821864 xi_0062_0023 - 0.187382383206 xi_0062_0024
 + 0.383302875585 xi_0062_0025 - 0.750161596334 xi_0062_0026
 - 1.33170117681 xi_0062_0027 + 0.0190658885385 xi_0062_0028
 - 0.745784276999 xi_0062_0029 - 0.516231038044 xi_0062_0030
 - 0.409255825925 xi_0062_0031 - 0.0994375517393 xi_0062_0032
 - 0.734256048841 xi_0062_0033 - 0.253933375138 xi_0062_0034
 - 0.256674950149 xi_0062_0035 - 0.732341101218 xi_0062_0036
 - 0.86707443001 xi_0062_0037 - 0.319117177314 xi_0062_0038
 + 0.0697086420108 xi_0062_0039 <= 1.24294941651
C_0063_cost_0001: cost_0063 - 0.0401410059451 pi_0001_0000
 - 0.0181262762237 pi_0001_0001 >= 0
C_0063_cost_0002: cost_0063 - 0.000799093079391 pi_0002_0000
 - 0.000768210673686 pi_0002_0001 - 0.000737340099353 pi_0002_0002
 - 0.000706481358059 pi_0002_0003 - 0.000675634451468 pi_0002_0004
 - 0.000644799381239 pi_0002_0005 - 0.000613976149027 pi_0002_0006
 - 0.000583164756482 pi_0002_0007 - 0.000552365205252 pi_0002_0008
 - 0.000521577496979 pi_0002_0009 - 0.000490801633301 pi_0002_0010
 - 0.000460037615852 pi_0002_0011 - 0.000429285446263 pi_0002_0012
 - 0.00039854512616 pi_0002_0013 - 0.000367816657163 pi_0002_0014
 - 0.000337100040891 pi_0002_0015 - 0.000306395278956 pi_0002_0016
 - 0.000275702372967 pi_0002_0017 - 0.000245021324529 pi_0002_0018
 - 0.000214352135243 pi_0002_0019 - 0.000183694806704 pi_0002_0020
 - 0.000153049340504 pi_0002_0021 - 0.00012241573823 pi_0002_0022
 - 9.17940014664e-05 pi_0002_0023 - 6.11841317911e-05 pi_0002_0024
 - 3.0586130779e-05 pi_0002_0025 >= 0
C_0063_cost_0003: cost_0063 >= 0
C_0063_cost_0004: cost_0063 >= 0
C_0063_cost_0005: cost_0063 >= 0
C_0063_cost_0006: cost_0063 >= 0
C_0063_cost_0007: cost_0063 >= 0
C_0063_cost_0008: cost_0063 >= 0
C_0063_cost_0009: cost_0063 >= 0
C_0063_cost_0010: cost_0063 >= 0
C_0063_cost_0011: cost_0063 >= 0
C_0063_cost_0012: cost_0063 >= 0
C_0063_cost_0013: cost_0063 >= 0
C_0063_cost_0014: cost_0063 >= 0
C_0063_cost_0015: cost_0063 >= 0
C_0063_cost_0016: cost_0063 >= 0
C_0063_cost_0017: cost_0063 >= 0
C_0063_cost_0018: cost_0063 >= 0
C_0063_cost_0019: cost_0063 >= 0
C_0063_cost_0020: cost_0063 >= 0
C_0063_cost_0021: cost_0063 >= 0
C_0063_cost_0022: cost_0063 >= 0
C_0063_cost_0023: cost_0063 >= 0
C_0063_cost_0024: cost_0063 >= 0
C_0063_cost_0025: cost_0063 >= 0
C_0063_cost_0026: cost_0063 - 0.0106666652041 pi_0026_0000 >= 0
C_0063_cost_0027: cost_0063 >= 0
C_0063_cost_0028: cost_0063 >= 0
C_0063_cost_0029: cost_0063 - 0.426666385001 pi_0029_0000 >= 0
C_0063_cost_0030: cost_0063 >= 0
C_0063_cost_0031: cost_0063 >= 0
C_0063_cost_0032: cost_0063 >= 0
C_0063_cost_0033: cost_0063 >= 0
C_0063_cost_0034: cost_0063 >= 0
C_0063_cost_0035: cost_0063 >= 0
C_0063_cost_0036: cost_0063 >= 0
C_0063_linear_0000: - act_0000 + xi_0063_0000 = 40
C_0063_linear_0001: - act_0001 + xi_0063_0001 = 28
C_0063_linear_0002: - act_0002 + xi_0063_0002 = 7824
C_0063_linear_0003: - act_0003 + xi_0063_0003 = 3
C_0063_linear_0004: - act_0004 + xi_0063_0004 = 4
C_0063_linear_0005: - act_0005 + xi_0063_0005 = 2
C_0063_linear_0006: - act_0006 + xi_0063_0006 = 1
C_0063_linear_0007: - act_0007 + xi_0063_0007 = 1
C_0063_linear_0008: - act_0008 + xi_0063_0008 = 1
C_0063_linear_0009: - act_0009 + xi_0063_0009 = 1
C_0063_linear_0010: - act_0010 + xi_0063_0010 = 0
C_0063_linear_0011: - act_0011 + xi_0063_0011 = 1
C_0063_linear_0012: - act_0012 + xi_0063_0012 = 0
C_0063_linear_0013: - act_0013 + xi_0063_0013 = 1
C_0063_linear_0014: - act_0014 + xi_0063_0014 = 0
C_0063_linear_0015: - act_0015 + xi_0063_0015 = 1
C_0063_linear_0016: - act_0016 + xi_0063_0016 = 0
C_0063_linear_0017: - act_0017 + xi_0063_0017 = 1
C_0063_linear_0018: - act_0018 + xi_0063_0018 = 0
C_0063_linear_0019: - act_0019 + xi_0063_0019 = 0
C_0063_linear_0020: - act_0020 + xi_0063_0020 = 0
C_0063_linear_0021: - act_0021 + xi_0063_0021 = 0
C_0063_linear_0022: - act_0022 + xi_0063_0022 = 0
C_0063_linear_0023: - act_0023 + xi_0063_0023 = 0
C_0063_linear_0024: - act_0024 + xi_0063_0024 = 0
C_0063_linear_0025: - act_0025 + xi_0063_0025 = 0
C_0063_linear_0026: - act_0026 + xi_0063_0026 = 0
C_0063_linear_0027: - act_0027 + xi_0063_0027 = 1
C_0063_linear_0028: - act_0028 + xi_0063_0028 = 1
C_0063_linear_0029: - act_0029 + xi_0063_0029 = 0
C_0063_linear_0030: - act_0030 + xi_0063_0030 = 0
C_0063_linear_0031: - act_0031 + xi_0063_0031 = 1
C_0063_linear_0032: - act_0032 + xi_0063_0032 = 0
C_0063_linear_0033: - act_0033 + xi_0063_0033 = 0
C_0063_linear_0034: - act_0034 + xi_0063_0034 = 1
C_0063_linear_0035: - act_0035 + xi_0063_0035 = 0
C_0063_linear_0036: - act_0036 + xi_0063_0036 = 0
C_0063_linear_0037: - act_0037 + xi_0063_0037 = 0
C_0063_linear_0038: - act_0038 + xi_0063_0038 = 1
C_0063_linear_0039: - act_0039 + xi_0063_0039 = 1
C_0063_loss_ge: - 10000 omg_0063 - 0.0111828930987 xi_0063_0000
 + 0.0316585861132 xi_0063_0001 + 0.000106039552982 xi_0063_0002
 + 0.2872356913 xi_0063_0003 + 0.013030358965 xi_0063_0004
 + 0.240120705533 xi_0063_0005 + 0.442580447937 xi_0063_0006
 - 0.375980671537 xi_0063_0007 + 0.392374151169 xi_0063_0008
 + 1.06701819784 xi_0063_0009 - 0.942756746323 xi_0063_0010
 + 0.412027349402 xi_0063_0011 + 0.570359951286 xi_0063_0012
 - 0.852905494999 xi_0063_0013 - 0.323418189169 xi_0063_0014
 + 0.252938924417 xi_0063_0015 - 0.0388599557068 xi_0063_0016
 - 0.020417849004 xi_0063_0017 - 0.119001175529 xi_0063_0018
 + 0.47399163059 xi_0063_0019 - 0.445604107063 xi_0063_0020
 - 0.0184582213876 xi_0063_0021 + 0.307589905785 xi_0063_0022
 + 0.444474821864 xi_0063_0023 - 0.187382383206 xi_0063_0024
 + 0.383302875585 xi_0063_0025 - 0.750161596334 xi_0063_0026
 - 1.33170117681 xi_0063_0027 + 0.0190658885385 xi_0063_0028
 - 0.745784276999 xi_0063_0029 - 0.516231038044 xi_0063_0030
 - 0.409255825925 xi_0063_0031 - 0.0994375517393 xi_0063_0032
 - 0.734256048841 xi_0063_0033 - 0.253933375138 xi_0063_0034
 - 0.256674950149 xi_0063_0035 - 0.732341101218 xi_0063_0036
 - 0.86707443001 xi_0063_0037 - 0.319117177314 xi_0063_0038
 + 0.0697086420108 xi_0063_0039 >= -9998.75705057
C_0063_loss_le: - 10000 omg_0063 - 0.0111828930987 xi_0063_0000
 + 0.0316585861132 xi_0063_0001 + 0.000106039552982 xi_0063_0002
 + 0.2872356913 xi_0063_0003 + 0.013030358965 xi_0063_0004
 + 0.240120705533 xi_0063_0005 + 0.442580447937 xi_0063_0006
 - 0.375980671537 xi_0063_0007 + 0.392374151169 xi_0063_0008
 + 1.06701819784 xi_0063_0009 - 0.942756746323 xi_0063_0010
 + 0.412027349402 xi_0063_0011 + 0.570359951286 xi_0063_0012
 - 0.852905494999 xi_0063_0013 - 0.323418189169 xi_0063_0014
 + 0.252938924417 xi_0063_0015 - 0.0388599557068 xi_0063_0016
 - 0.020417849004 xi_0063_0017 - 0.119001175529 xi_0063_0018
 + 0.47399163059 xi_0063_0019 - 0.445604107063 xi_0063_0020
 - 0.0184582213876 xi_0063_0021 + 0.307589905785 xi_0063_0022
 + 0.444474821864 xi_0063_0023 - 0.187382383206 xi_0063_0024
 + 0.383302875585 xi_0063_0025 - 0.750161596334 xi_0063_0026
 - 1.33170117681 xi_0063_0027 + 0.0190658885385 xi_0063_0028
 - 0.745784276999 xi_0063_0029 - 0.516231038044 xi_0063_0030
 - 0.409255825925 xi_0063_0031 - 0.0994375517393 xi_0063_0032
 - 0.734256048841 xi_0063_0033 - 0.253933375138 xi_0063_0034
 - 0.256674950149 xi_0063_0035 - 0.732341101218 xi_0063_0036
 - 0.86707443001 xi_0063_0037 - 0.319117177314 xi_0063_0038
 + 0.0697086420108 xi_0063_0039 <= 1.24294941651
C_0064_cost_0001: cost_0064 - 0.0246929068628 pi_0001_0000
 - 0.0123216428276 pi_0001_0001 >= 0
C_0064_cost_0002: cost_0064 - 0.00662512428576 pi_0002_0000
 - 0.00636982702418 pi_0002_0001 - 0.00611456742374 pi_0002_0002
 - 0.005859345626 pi_0002_0003 - 0.0056041617723 pi_0002_0004
 - 0.00534901600378 pi_0002_0005 - 0.0050939084613 pi_0002_0006
 - 0.00483883928554 pi_0002_0007 - 0.0045838086169 pi_0002_0008
 - 0.00432881659559 pi_0002_0009 - 0.00407386336157 pi_0002_0010
 - 0.00381894905456 pi_0002_0011 - 0.00356407381407 pi_0002_0012
 - 0.00330923777937 pi_0002_0013 - 0.00305444108949 pi_0002_0014
 - 0.00279968388325 pi_0002_0015 - 0.0025449662992 pi_0002_0016
 - 0.0022902884757 pi_0002_0017 - 0.00203565055085 pi_0002_0018
 - 0.00178105266253 pi_0002_0019 - 0.00152649494839 pi_0002_0020
 - 0.00127197754584 pi_0002_0021 - 0.00101750059205 pi_0002_0022
 - 0.000763064223975 pi_0002_0023 - 0.000508668578327 pi_0002_0024
 - 0.000254313791586 pi_0002_0025 >= 0
C_0064_cost_0003: cost_0064 >= 0
C_0064_cost_0004: cost_0064 >= 0
C_0064_cost_0005: cost_0064 >= 0
C_0064_cost_0006: cost_0064 >= 0
C_0064_cost_0007: cost_0064 >= 0
C_0064_cost_0008: cost_0064 >= 0
C_0064_cost_0009: cost_0064 >= 0
C_0064_cost_0010: cost_0064 >= 0
C_0064_cost_0011: cost_0064 >= 0
C_0064_cost_0012: cost_0064 >= 0
C_0064_cost_0013: cost_0064 >= 0
C_0064_cost_0014: cost_0064 >= 0
C_0064_cost_0015: cost_0064 >= 0
C_0064_cost_0016: cost_0064 >= 0
C_0064_cost_0017: cost_0064 >= 0
C_0064_cost_0018: cost_0064 >= 0
C_0064_cost_0019: cost_0064 >= 0
C_0064_cost_0020: cost_0064 >= 0
C_0064_cost_0021: cost_0064 >= 0
C_0064_cost_0022: cost_0064 >= 0
C_0064_cost_0023: cost_0064 >= 0
C_0064_cost_0024: cost_0064 >= 0
C_0064_cost_0025: cost_0064 >= 0
C_0064_cost_0026: cost_0064 - 0.0106666652041 pi_0026_0000 >= 0
C_0064_cost_0027: cost_0064 >= 0
C_0064_cost_0028: cost_0064 >= 0
C_0064_cost_0029: cost_0064 - 0.426666385001 pi_0029_0000 >= 0
C_0064_cost_0030: cost_0064 >= 0
C_0064_cost_0031: cost_0064 >= 0
C_0064_cost_0032: cost_0064 >= 0
C_0064_cost_0033: cost_0064 >= 0
C_0064_cost_0034: cost_0064 >= 0
C_0064_cost_0035: cost_0064 >= 0
C_0064_cost_0036: cost_0064 >= 0
C_0064_linear_0000: - act_0000 + xi_0064_0000 = 34
C_0064_linear_0001: - act_0001 + xi_0064_0001 = 36
C_0064_linear_0002: - act_0002 + xi_0064_0002 = 1842
C_0064_linear_0003: - act_0003 + xi_0064_0003 = 4
C_0064_linear_0004: - act_0004 + xi_0064_0004 = 4
C_0064_linear_0005: - act_0005 + xi_0064_0005 = 1
C_0064_linear_0006: - act_0006 + xi_0064_0006 = 0
C_0064_linear_0007: - act_0007 + xi_0064_0007 = 1
C_0064_linear_0008: - act_0008 + xi_0064_0008 = 1
C_0064_linear_0009: - act_0009 + xi_0064_0009 = 0
C_0064_linear_0010: - act_0010 + xi_0064_0010 = 0
C_0064_linear_0011: - act_0011 + xi_0064_0011 = 0
C_0064_linear_0012: - act_0012 + xi_0064_0012 = 0
C_0064_linear_0013: - act_0013 + xi_0064_0013 = 0
C_0064_linear_0014: - act_0014 + xi_0064_0014 = 1
C_0064_linear_0015: - act_0015 + xi_0064_0015 = 0
C_0064_linear_0016: - act_0016 + xi_0064_0016 = 0
C_0064_linear_0017: - act_0017 + xi_0064_0017 = 1
C_0064_linear_0018: - act_0018 + xi_0064_0018 = 0
C_0064_linear_0019: - act_0019 + xi_0064_0019 = 0
C_0064_linear_0020: - act_0020 + xi_0064_0020 = 0
C_0064_linear_0021: - act_0021 + xi_0064_0021 = 0
C_0064_linear_0022: - act_0022 + xi_0064_0022 = 0
C_0064_linear_0023: - act_0023 + xi_0064_0023 = 1
C_0064_linear_0024: - act_0024 + xi_0064_0024 = 0
C_0064_linear_0025: - act_0025 + xi_0064_0025 = 0
C_0064_linear_0026: - act_0026 + xi_0064_0026 = 0
C_0064_linear_0027: - act_0027 + xi_0064_0027 = 0
C_0064_linear_0028: - act_0028 + xi_0064_0028 = 1
C_0064_linear_0029: - act_0029 + xi_0064_0029 = 0
C_0064_linear_0030: - act_0030 + xi_0064_0030 = 0
C_0064_linear_0031: - act_0031 + xi_0064_0031 = 1
C_0064_linear_0032: - act_0032 + xi_0064_0032 = 0
C_0064_linear_0033: - act_0033 + xi_0064_0033 = 0
C_0064_linear_0034: - act_0034 + xi_0064_0034 = 1
C_0064_linear_0035: - act_0035 + xi_0064_0035 = 0
C_0064_linear_0036: - act_0036 + xi_0064_0036 = 0
C_0064_linear_0037: - act_0037 + xi_0064_0037 = 0
C_0064_linear_0038: - act_0038 + xi_0064_0038 = 0
C_0064_linear_0039: - act_0039 + xi_0064_0039 = 0
C_0064_loss_ge: - 10000 omg_0064 - 0.0111828930987 xi_0064_0000
 + 0.0316585861132 xi_0064_0001 + 0.000106039552982 xi_0064_0002
 + 0.2872356913 xi_0064_0003 + 0.013030358965 xi_0064_0004
 + 0.240120705533 xi_0064_0005 + 0.442580447937 xi_0064_0006
 - 0.375980671537 xi_0064_0007 + 0.392374151169 xi_0064_0008
 + 1.06701819784 xi_0064_0009 - 0.942756746323 xi_0064_0010
 + 0.412027349402 xi_0064_0011 + 0.570359951286 xi_0064_0012
 - 0.852905494999 xi_0064_0013 - 0.323418189169 xi_0064_0014
 + 0.252938924417 xi_0064_0015 - 0.0388599557068 xi_0064_0016
 - 0.020417849004 xi_0064_0017 - 0.119001175529 xi_0064_0018
 + 0.47399163059 xi_0064_0019 - 0.445604107063 xi_0064_0020
 - 0.0184582213876 xi_0064_0021 + 0.307589905785 xi_0064_0022
 + 0.444474821864 xi_0064_0023 - 0.187382383206 xi_0064_0024
 + 0.383302875585 xi_0064_0025 - 0.750161596334 xi_0064_0026
 - 1.33170117681 xi_0064_0027 + 0.0190658885385 xi_0064_0028
 - 0.745784276999 xi_0064_0029 - 0.516231038044 xi_0064_0030
 - 0.409255825925 xi_0064_0031 - 0.0994375517393 xi_0064_0032
 - 0.734256048841 xi_0064_0033 - 0.253933375138 xi_0064_0034
 - 0.256674950149 xi_0064_0035 - 0.732341101218 xi_0064_0036
 - 0.86707443001 xi_0064_0037 - 0.319117177314 xi_0064_0038
 + 0.0697086420108 xi_0064_0039 >= -9998.75705057
C_0064_loss_le: - 10000 omg_0064 - 0.0111828930987 xi_0064_0000
 + 0.0316585861132 xi_0064_0001 + 0.000106039552982 xi_0064_0002
 + 0.2872356913 xi_0064_0003 + 0.013030358965 xi_0064_0004
 + 0.240120705533 xi_0064_0005 + 0.442580447937 xi_0064_0006
 - 0.375980671537 xi_0064_0007 + 0.392374151169 xi_0064_0008
 + 1.06701819784 xi_0064_0009 - 0.942756746323 xi_0064_0010
 + 0.412027349402 xi_0064_0011 + 0.570359951286 xi_0064_0012
 - 0.852905494999 xi_0064_0013 - 0.323418189169 xi_0064_0014
 + 0.252938924417 xi_0064_0015 - 0.0388599557068 xi_0064_0016
 - 0.020417849004 xi_0064_0017 - 0.119001175529 xi_0064_0018
 + 0.47399163059 xi_0064_0019 - 0.445604107063 xi_0064_0020
 - 0.0184582213876 xi_0064_0021 + 0.307589905785 xi_0064_0022
 + 0.444474821864 xi_0064_0023 - 0.187382383206 xi_0064_0024
 + 0.383302875585 xi_0064_0025 - 0.750161596334 xi_0064_0026
 - 1.33170117681 xi_0064_0027 + 0.0190658885385 xi_0064_0028
 - 0.745784276999 xi_0064_0029 - 0.516231038044 xi_0064_0030
 - 0.409255825925 xi_0064_0031 - 0.0994375517393 xi_0064_0032
 - 0.734256048841 xi_0064_0033 - 0.253933375138 xi_0064_0034
 - 0.256674950149 xi_0064_0035 - 0.732341101218 xi_0064_0036
 - 0.86707443001 xi_0064_0037 - 0.319117177314 xi_0064_0038
 + 0.0697086420108 xi_0064_0039 <= 1.24294941651
C_0065_cost_0001: cost_0065 - 0.0246929068628 pi_0001_0000
 - 0.0123216428276 pi_0001_0001 >= 0
C_0065_cost_0002: cost_0065 - 0.000750590598257 pi_0002_0000
 - 0.0007215712158 pi_0002_0001 - 0.000692563867684 pi_0002_0002
 - 0.000663568554784 pi_0002_0003 - 0.000634585277971 pi_0002_0004
 - 0.000605614038108 pi_0002_0005 - 0.000576654836053 pi_0002_0006
 - 0.000547707672658 pi_0002_0007 - 0.000518772548767 pi_0002_0008
 - 0.00048984946522 pi_0002_0009 - 0.000460938422849 pi_0002_0010
 - 0.000432039422481 pi_0002_0011 - 0.000403152464936 pi_0002_0012
 - 0.000374277551028 pi_0002_0013 - 0.000345414681565 pi_0002_0014
 - 0.000316563857348 pi_0002_0015 - 0.000287725079171 pi_0002_0016
 - 0.000258898347824 pi_0002_0017 - 0.000230083664089 pi_0002_0018
 - 0.000201281028742 pi_0002_0019 - 0.000172490442552 pi_0002_0020
 - 0.000143711906282 pi_0002_0021 - 0.00011494542069 pi_0002_0022
 - 8.61909865245e-05 pi_0002_0023 - 5.74486045307e-05 pi_0002_0024
 - 2.87182754456e-05 pi_0002_0025 >= 0
C_0065_cost_0003: cost_0065 >= 0
C_0065_cost_0004: cost_0065 >= 0
C_0065_cost_0005: cost_0065 >= 0
C_0065_cost_0006: cost_0065 >= 0
C_0065_cost_0007: cost_0065 >= 0
C_0065_cost_0008: cost_0065 >= 0
C_0065_cost_0009: cost_0065 >= 0
C_0065_cost_0010: cost_0065 >= 0
C_0065_cost_0011: cost_0065 >= 0
C_0065_cost_0012: cost_0065 >= 0
C_0065_cost_0013: cost_0065 >= 0
C_0065_cost_0014: cost_0065 >= 0
C_0065_cost_0015: cost_0065 >= 0
C_0065_cost_0016: cost_0065 >= 0
C_0065_cost_0017: cost_0065 >= 0
C_0065_cost_0018: cost_0065 >= 0
C_0065_cost_0019: cost_0065 >= 0
C_0065_cost_0020: cost_0065 >= 0
C_0065_cost_0021: cost_0065 >= 0
C_0065_cost_0022: cost_0065 >= 0
C_0065_cost_0023: cost_0065 >= 0
C_0065_cost_0024: cost_0065 >= 0
C_0065_cost_0025: cost_0065 >= 0
C_0065_cost_0026: cost_0065 - 0.0106666652041 pi_0026_0000 >= 0
C_0065_cost_0027: cost_0065 >= 0
C_0065_cost_0028: cost_0065 >= 0
C_0065_cost_0029: cost_0065 - 0.426666385001 pi_0029_0000 >= 0
C_0065_cost_0030: cost_0065 >= 0
C_0065_cost_0031: cost_0065 >= 0
C_0065_cost_0032: cost_0065 >= 0
C_0065_cost_0033: cost_0065 >= 0
C_0065_cost_0034: cost_0065 >= 0
C_0065_cost_0035: cost_0065 >= 0
C_0065_cost_0036: cost_0065 >= 0
C_0065_linear_0000: - act_0000 + xi_0065_0000 = 27
C_0065_linear_0001: - act_0001 + xi_0065_0001 = 36
C_0065_linear_0002: - act_0002 + xi_0065_0002 = 7980
C_0065_linear_0003: - act_0003 + xi_0065_0003 = 4
C_0065_linear_0004: - act_0004 + xi_0065_0004 = 4
C_0065_linear_0005: - act_0005 + xi_0065_0005 = 2
C_0065_linear_0006: - act_0006 + xi_0065_0006 = 0
C_0065_linear_0007: - act_0007 + xi_0065_0007 = 1
C_0065_linear_0008: - act_0008 + xi_0065_0008 = 0
C_0065_linear_0009: - act_0009 + xi_0065_0009 = 0
C_0065_linear_0010: - act_0010 + xi_0065_0010 = 0
C_0065_linear_0011: - act_0011 + xi_0065_0011 = 0
C_0065_linear_0012: - act_0012 + xi_0065_0012 = 0
C_0065_linear_0013: - act_0013 + xi_0065_0013 = 0
C_0065_linear_0014: - act_0014 + xi_0065_0014 = 0
C_0065_linear_0015: - act_0015 + xi_0065_0015 = 1
C_0065_linear_0016: - act_0016 + xi_0065_0016 = 0
C_0065_linear_0017: - act_0017 + xi_0065_0017 = 1
C_0065_linear_0018: - act_0018 + xi_0065_0018 = 1
C_0065_linear_0019: - act_0019 + xi_0065_0019 = 0
C_0065_linear_0020: - act_0020 + xi_0065_0020 = 0
C_0065_linear_0021: - act_0021 + xi_0065_0021 = 0
C_0065_linear_0022: - act_0022 + xi_0065_0022 = 0
C_0065_linear_0023: - act_0023 + xi_0065_0023 = 0
C_0065_linear_0024: - act_0024 + xi_0065_0024 = 0
C_0065_linear_0025: - act_0025 + xi_0065_0025 = 0
C_0065_linear_0026: - act_0026 + xi_0065_0026 = 0
C_0065_linear_0027: - act_0027 + xi_0065_0027 = 0
C_0065_linear_0028: - act_0028 + xi_0065_0028 = 1
C_0065_linear_0029: - act_0029 + xi_0065_0029 = 0
C_0065_linear_0030: - act_0030 + xi_0065_0030 = 0
C_0065_linear_0031: - act_0031 + xi_0065_0031 = 1
C_0065_linear_0032: - act_0032 + xi_0065_0032 = 0
C_0065_linear_0033: - act_0033 + xi_0065_0033 = 0
C_0065_linear_0034: - act_0034 + xi_0065_0034 = 1
C_0065_linear_0035: - act_0035 + xi_0065_0035 = 0
C_0065_linear_0036: - act_0036 + xi_0065_0036 = 0
C_0065_linear_0037: - act_0037 + xi_0065_0037 = 0
C_0065_linear_0038: - act_0038 + xi_0065_0038 = 1
C_0065_linear_0039: - act_0039 + xi_0065_0039 = 1
C_0065_loss_ge: - 10000 omg_0065 - 0.0111828930987 xi_0065_0000
 + 0.0316585861132 xi_0065_0001 + 0.000106039552982 xi_0065_0002
 + 0.2872356913 xi_0065_0003 + 0.013030358965 xi_0065_0004
 + 0.240120705533 xi_0065_0005 + 0.442580447937 xi_0065_0006
 - 0.375980671537 xi_0065_0007 + 0.392374151169 xi_0065_0008
 + 1.06701819784 xi_0065_0009 - 0.942756746323 xi_0065_0010
 + 0.412027349402 xi_0065_0011 + 0.570359951286 xi_0065_0012
 - 0.852905494999 xi_0065_0013 - 0.323418189169 xi_0065_0014
 + 0.252938924417 xi_0065_0015 - 0.0388599557068 xi_0065_0016
 - 0.020417849004 xi_0065_0017 - 0.119001175529 xi_0065_0018
 + 0.47399163059 xi_0065_0019 - 0.445604107063 xi_0065_0020
 - 0.0184582213876 xi_0065_0021 + 0.307589905785 xi_0065_0022
 + 0.444474821864 xi_0065_0023 - 0.187382383206 xi_0065_0024
 + 0.383302875585 xi_0065_0025 - 0.750161596334 xi_0065_0026
 - 1.33170117681 xi_0065_0027 + 0.0190658885385 xi_0065_0028
 - 0.745784276999 xi_0065_0029 - 0.516231038044 xi_0065_0030
 - 0.409255825925 xi_0065_0031 - 0.0994375517393 xi_0065_0032
 - 0.734256048841 xi_0065_0033 - 0.253933375138 xi_0065_0034
 - 0.256674950149 xi_0065_0035 - 0.732341101218 xi_0065_0036
 - 0.86707443001 xi_0065_0037 - 0.319117177314 xi_0065_0038
 + 0.0697086420108 xi_0065_0039 >= -9998.75705057
C_0065_loss_le: - 10000 omg_0065 - 0.0111828930987 xi_0065_0000
 + 0.0316585861132 xi_0065_0001 + 0.000106039552982 xi_0065_0002
 + 0.2872356913 xi_0065_0003 + 0.013030358965 xi_0065_0004
 + 0.240120705533 xi_0065_0005 + 0.442580447937 xi_0065_0006
 - 0.375980671537 xi_0065_0007 + 0.392374151169 xi_0065_0008
 + 1.06701819784 xi_0065_0009 - 0.942756746323 xi_0065_0010
 + 0.412027349402 xi_0065_0011 + 0.570359951286 xi_0065_0012
 - 0.852905494999 xi_0065_0013 - 0.323418189169 xi_0065_0014
 + 0.252938924417 xi_0065_0015 - 0.0388599557068 xi_0065_0016
 - 0.020417849004 xi_0065_0017 - 0.119001175529 xi_0065_0018
 + 0.47399163059 xi_0065_0019 - 0.445604107063 xi_0065_0020
 - 0.0184582213876 xi_0065_0021 + 0.307589905785 xi_0065_0022
 + 0.444474821864 xi_0065_0023 - 0.187382383206 xi_0065_0024
 + 0.383302875585 xi_0065_0025 - 0.750161596334 xi_0065_0026
 - 1.33170117681 xi_0065_0027 + 0.0190658885385 xi_0065_0028
 - 0.745784276999 xi_0065_0029 - 0.516231038044 xi_0065_0030
 - 0.409255825925 xi_0065_0031 - 0.0994375517393 xi_0065_0032
 - 0.734256048841 xi_0065_0033 - 0.253933375138 xi_0065_0034
 - 0.256674950149 xi_0065_0035 - 0.732341101218 xi_0065_0036
 - 0.86707443001 xi_0065_0037 - 0.319117177314 xi_0065_0038
 + 0.0697086420108 xi_0065_0039 <= 1.24294941651
C_0066_cost_0001: cost_0066 - 0.0246929068628 pi_0001_0000
 - 0.0123216428276 pi_0001_0001 >= 0
C_0066_cost_0002: cost_0066 - 0.000230718873787 pi_0002_0000
 - 0.000221816381675 pi_0002_0001 - 0.000212916186784 pi_0002_0002
 - 0.000204018288851 pi_0002_0003 - 0.000195122687614 pi_0002_0004
 - 0.00018622938281 pi_0002_0005 - 0.000177338374178 pi_0002_0006
 - 0.000168449661456 pi_0002_0007 - 0.000159563244386 pi_0002_0008
 - 0.000150679122705 pi_0002_0009 - 0.000141797296157 pi_0002_0010
 - 0.000132917764482 pi_0002_0011 - 0.000124040527422 pi_0002_0012
 - 0.000115165584721 pi_0002_0013 - 0.00010629293612 pi_0002_0014
 - 9.74225813637e-05 pi_0002_0015 - 8.85545201966e-05 pi_0002_0016
 - 7.96887523633e-05 pi_0002_0017 - 7.08252776088e-05 pi_0002_0018
 - 6.1964095679e-05 pi_0002_0019 - 5.31052063201e-05 pi_0002_0020
 - 4.42486092788e-05 pi_0002_0021 - 3.5394304302e-05 pi_0002_0022
 - 2.65422911375e-05 pi_0002_0023 - 1.76925695333e-05 pi_0002_0024
 - 8.84513923793e-06 pi_0002_0025 >= 0
C_0066_cost_0003: cost_0066 >= 0
C_0066_cost_0004: cost_0066 >= 0
C_0066_cost_0005: cost_0066 >= 0
C_0066_cost_0006: cost_0066 >= 0
C_0066_cost_0007: cost_0066 >= 0
C_0066_cost_0008: cost_0066 >= 0
C_0066_cost_0009: cost_0066 >= 0
C_0066_cost_0010: cost_0066 >= 0
C_0066_cost_0011: cost_0066 >= 0
C_0066_cost_0012: cost_0066 >= 0
C_0066_cost_0013: cost_0066 >= 0
C_0066_cost_0014: cost_0066 >= 0
C_0066_cost_0015: cost_0066 >= 0
C_0066_cost_0016: cost_0066 >= 0
C_0066_cost_0017: cost_0066 >= 0
C_0066_cost_0018: cost_0066 >= 0
C_0066_cost_0019: cost_0066 >= 0
C_0066_cost_0020: cost_0066 >= 0
C_0066_cost_0021: cost_0066 >= 0
C_0066_cost_0022: cost_0066 >= 0
C_0066_cost_0023: cost_0066 >= 0
C_0066_cost_0024: cost_0066 >= 0
C_0066_cost_0025: cost_0066 >= 0
C_0066_cost_0026: cost_0066 - 0.0106666652041 pi_0026_0000 >= 0
C_0066_cost_0027: cost_0066 >= 0
C_0066_cost_0028: cost_0066 >= 0
C_0066_cost_0029: cost_0066 - 0.426666385001 pi_0029_0000 >= 0
C_0066_cost_0030: cost_0066 >= 0
C_0066_cost_0031: cost_0066 >= 0
C_0066_cost_0032: cost_0066 >= 0
C_0066_cost_0033: cost_0066 >= 0
C_0066_cost_0034: cost_0066 >= 0
C_0066_cost_0035: cost_0066 >= 0
C_0066_cost_0036: cost_0066 >= 0
C_0066_linear_0000: - act_0000 + xi_0066_0000 = 26
C_0066_linear_0001: - act_0001 + xi_0066_0001 = 36
C_0066_linear_0002: - act_0002 + xi_0066_0002 = 10974
C_0066_linear_0003: - act_0003 + xi_0066_0003 = 4
C_0066_linear_0004: - act_0004 + xi_0066_0004 = 2
C_0066_linear_0005: - act_0005 + xi_0066_0005 = 2
C_0066_linear_0006: - act_0006 + xi_0066_0006 = 0
C_0066_linear_0007: - act_0007 + xi_0066_0007 = 1
C_0066_linear_0008: - act_0008 + xi_0066_0008 = 1
C_0066_linear_0009: - act_0009 + xi_0066_0009 = 0
C_0066_linear_0010: - act_0010 + xi_0066_0010 = 0
C_0066_linear_0011: - act_0011 + xi_0066_0011 = 0
C_0066_linear_0012: - act_0012 + xi_0066_0012 = 0
C_0066_linear_0013: - act_0013 + xi_0066_0013 = 0
C_0066_linear_0014: - act_0014 + xi_0066_0014 = 1
C_0066_linear_0015: - act_0015 + xi_0066_0015 = 0
C_0066_linear_0016: - act_0016 + xi_0066_0016 = 1
C_0066_linear_0017: - act_0017 + xi_0066_0017 = 1
C_0066_linear_0018: - act_0018 + xi_0066_0018 = 0
C_0066_linear_0019: - act_0019 + xi_0066_0019 = 0
C_0066_linear_0020: - act_0020 + xi_0066_0020 = 0
C_0066_linear_0021: - act_0021 + xi_0066_0021 = 1
C_0066_linear_0022: - act_0022 + xi_0066_0022 = 0
C_0066_linear_0023: - act_0023 + xi_0066_0023 = 0
C_0066_linear_0024: - act_0024 + xi_0066_0024 = 0
C_0066_linear_0025: - act_0025 + xi_0066_0025 = 0
C_0066_linear_0026: - act_0026 + xi_0066_0026 = 0
C_0066_linear_0027: - act_0027 + xi_0066_0027 = 0
C_0066_linear_0028: - act_0028 + xi_0066_0028 = 0
C_0066_linear_0029: - act_0029 + xi_0066_0029 = 0
C_0066_linear_0030: - act_0030 + xi_0066_0030 = 1
C_0066_linear_0031: - act_0031 + xi_0066_0031 = 1
C_0066_linear_0032: - act_0032 + xi_0066_0032 = 0
C_0066_linear_0033: - act_0033 + xi_0066_0033 = 0
C_0066_linear_0034: - act_0034 + xi_0066_0034 = 1
C_0066_linear_0035: - act_0035 + xi_0066_0035 = 0
C_0066_linear_0036: - act_0036 + xi_0066_0036 = 0
C_0066_linear_0037: - act_0037 + xi_0066_0037 = 0
C_0066_linear_0038: - act_0038 + xi_0066_0038 = 0
C_0066_linear_0039: - act_0039 + xi_0066_0039 = 0
C_0066_loss_ge: - 10000 omg_0066 - 0.0111828930987 xi_0066_0000
 + 0.0316585861132 xi_0066_0001 + 0.000106039552982 xi_0066_0002
 + 0.2872356913 xi_0066_0003 + 0.013030358965 xi_0066_0004
 + 0.240120705533 xi_0066_0005 + 0.442580447937 xi_0066_0006
 - 0.375980671537 xi_0066_0007 + 0.392374151169 xi_0066_0008
 + 1.06701819784 xi_0066_0009 - 0.942756746323 xi_0066_0010
 + 0.412027349402 xi_0066_0011 + 0.570359951286 xi_0066_0012
 - 0.852905494999 xi_0066_0013 - 0.323418189169 xi_0066_0014
 + 0.252938924417 xi_0066_0015 - 0.0388599557068 xi_0066_0016
 - 0.020417849004 xi_0066_0017 - 0.119001175529 xi_0066_0018
 + 0.47399163059 xi_0066_0019 - 0.445604107063 xi_0066_0020
 - 0.0184582213876 xi_0066_0021 + 0.307589905785 xi_0066_0022
 + 0.444474821864 xi_0066_0023 - 0.187382383206 xi_0066_0024
 + 0.383302875585 xi_0066_0025 - 0.750161596334 xi_0066_0026
 - 1.33170117681 xi_0066_0027 + 0.0190658885385 xi_0066_0028
 - 0.745784276999 xi_0066_0029 - 0.516231038044 xi_0066_0030
 - 0.409255825925 xi_0066_0031 - 0.0994375517393 xi_0066_0032
 - 0.734256048841 xi_0066_0033 - 0.253933375138 xi_0066_0034
 - 0.256674950149 xi_0066_0035 - 0.732341101218 xi_0066_0036
 - 0.86707443001 xi_0066_0037 - 0.319117177314 xi_0066_0038
 + 0.0697086420108 xi_0066_0039 >= -9998.75705057
C_0066_loss_le: - 10000 omg_0066 - 0.0111828930987 xi_0066_0000
 + 0.0316585861132 xi_0066_0001 + 0.000106039552982 xi_0066_0002
 + 0.2872356913 xi_0066_0003 + 0.013030358965 xi_0066_0004
 + 0.240120705533 xi_0066_0005 + 0.442580447937 xi_0066_0006
 - 0.375980671537 xi_0066_0007 + 0.392374151169 xi_0066_0008
 + 1.06701819784 xi_0066_0009 - 0.942756746323 xi_0066_0010
 + 0.412027349402 xi_0066_0011 + 0.570359951286 xi_0066_0012
 - 0.852905494999 xi_0066_0013 - 0.323418189169 xi_0066_0014
 + 0.252938924417 xi_0066_0015 - 0.0388599557068 xi_0066_0016
 - 0.020417849004 xi_0066_0017 - 0.119001175529 xi_0066_0018
 + 0.47399163059 xi_0066_0019 - 0.445604107063 xi_0066_0020
 - 0.0184582213876 xi_0066_0021 + 0.307589905785 xi_0066_0022
 + 0.444474821864 xi_0066_0023 - 0.187382383206 xi_0066_0024
 + 0.383302875585 xi_0066_0025 - 0.750161596334 xi_0066_0026
 - 1.33170117681 xi_0066_0027 + 0.0190658885385 xi_0066_0028
 - 0.745784276999 xi_0066_0029 - 0.516231038044 xi_0066_0030
 - 0.409255825925 xi_0066_0031 - 0.0994375517393 xi_0066_0032
 - 0.734256048841 xi_0066_0033 - 0.253933375138 xi_0066_0034
 - 0.256674950149 xi_0066_0035 - 0.732341101218 xi_0066_0036
 - 0.86707443001 xi_0066_0037 - 0.319117177314 xi_0066_0038
 + 0.0697086420108 xi_0066_0039 <= 1.24294941651
C_0067_cost_0001: cost_0067 - 0.0873361949203 pi_0001_0000
 - 0.0442906580929 pi_0001_0001 >= 0
C_0067_cost_0002: cost_0067 - 0.00660830135143 pi_0002_0000
 - 0.00635362352793 pi_0002_0001 - 0.00609898560308 pi_0002_0002
 - 0.00584438771477 pi_0002_0003 - 0.00558983000062 pi_0002_0004
 - 0.00533531259807 pi_0002_0005 - 0.00508083564428 pi_0002_0006
 - 0.00482639927621 pi_0002_0007 - 0.00457200363056 pi_0002_0008
 - 0.00431764884382 pi_0002_0009 - 0.00406333505223 pi_0002_0010
 - 0.00380906239181 pi_0002_0011 - 0.00355483099835 pi_0002_0012
 - 0.00330064100738 pi_0002_0013 - 0.00304649255422 pi_0002_0014
 - 0.00279238577394 pi_0002_0015 - 0.00253832080141 pi_0002_0016
 - 0.00228429777122 pi_0002_0017 - 0.00203031681775 pi_0002_0018
 - 0.00177637807515 pi_0002_0019 - 0.00152248167733 pi_0002_0020
 - 0.00126862775795 pi_0002_0021 - 0.00101481645047 pi_0002_0022
 - 0.000761047888079 pi_0002_0023 - 0.000507322203753 pi_0002_0024
 - 0.000253639530227 pi_0002_0025 >= 0
C_0067_cost_0003: cost_0067 >= 0
C_0067_cost_0004: cost_0067 >= 0
C_0067_cost_0005: cost_0067 >= 0
C_0067_cost_0006: cost_0067 >= 0
C_0067_cost_0007: cost_0067 >= 0
C_0067_cost_0008: cost_0067 >= 0
C_0067_cost_0009: cost_0067 >= 0
C_0067_cost_0010: cost_0067 >= 0
C_0067_cost_0011: cost_0067 >= 0
C_0067_cost_0012: cost_0067 >= 0
C_0067_cost_0013: cost_0067 >= 0
C_0067_cost_0014: cost_0067 >= 0
C_0067_cost_0015: cost_0067 >= 0
C_0067_cost_0016: cost_0067 >= 0
C_0067_cost_0017: cost_0067 >= 0
C_0067_cost_0018: cost_0067 >= 0
C_0067_cost_0019: cost_0067 >= 0
C_0067_cost_0020: cost_0067 >= 0
C_0067_cost_0021: cost_0067 >= 0
C_0067_cost_0022: cost_0067 >= 0
C_0067_cost_0023: cost_0067 >= 0
C_0067_cost_0024: cost_0067 >= 0
C_0067_cost_0025: cost_0067 >= 0
C_0067_cost_0026: cost_0067 - 0.0106666652041 pi_0026_0000 >= 0
C_0067_cost_0027: cost_0067 >= 0
C_0067_cost_0028: cost_0067 >= 0
C_0067_cost_0029: cost_0067 - 0.426666385001 pi_0029_0000 >= 0
C_0067_cost_0030: cost_0067 >= 0
C_0067_cost_0031: cost_0067 >= 0
C_0067_cost_0032: cost_0067 >= 0
C_0067_cost_0033: cost_0067 >= 0
C_0067_cost_0034: cost_0067 >= 0
C_0067_cost_0035: cost_0067 >= 0
C_0067_cost_0036: cost_0067 >= 0
C_0067_linear_0000: - act_0000 + xi_0067_0000 = 22
C_0067_linear_0001: - act_0001 + xi_0067_0001 = 12
C_0067_linear_0002: - act_0002 + xi_0067_0002 = 1858
C_0067_linear_0003: - act_0003 + xi_0067_0003 = 4
C_0067_linear_0004: - act_0004 + xi_0067_0004 = 1
C_0067_linear_0005: - act_0005 + xi_0067_0005 = 1
C_0067_linear_0006: - act_0006 + xi_0067_0006 = 0
C_0067_linear_0007: - act_0007 + xi_0067_0007 = 0
C_0067_linear_0008: - act_0008 + xi_0067_0008 = 1
C_0067_linear_0009: - act_0009 + xi_0067_0009 = 0
C_0067_linear_0010: - act_0010 + xi_0067_0010 = 0
C_0067_linear_0011: - act_0011 + xi_0067_0011 = 0
C_0067_linear_0012: - act_0012 + xi_0067_0012 = 0
C_0067_linear_0013: - act_0013 + xi_0067_0013 = 0
C_0067_linear_0014: - act_0014 + xi_0067_0014 = 0
C_0067_linear_0015: - act_0015 + xi_0067_0015 = 1
C_0067_linear_0016: - act_0016 + xi_0067_0016 = 0
C_0067_linear_0017: - act_0017 + xi_0067_0017 = 1
C_0067_linear_0018: - act_0018 + xi_0067_0018 = 0
C_0067_linear_0019: - act_0019 + xi_0067_0019 = 0
C_0067_linear_0020: - act_0020 + xi_0067_0020 = 0
C_0067_linear_0021: - act_0021 + xi_0067_0021 = 1
C_0067_linear_0022: - act_0022 + xi_0067_0022 = 0
C_0067_linear_0023: - act_0023 + xi_0067_0023 = 0
C_0067_linear_0024: - act_0024 + xi_0067_0024 = 0
C_0067_linear_0025: - act_0025 + xi_0067_0025 = 0
C_0067_linear_0026: - act_0026 + xi_0067_0026 = 0
C_0067_linear_0027: - act_0027 + xi_0067_0027 = 0
C_0067_linear_0028: - act_0028 + xi_0067_0028 = 1
C_0067_linear_0029: - act_0029 + xi_0067_0029 = 0
C_0067_linear_0030: - act_0030 + xi_0067_0030 = 0
C_0067_linear_0031: - act_0031 + xi_0067_0031 = 1
C_0067_linear_0032: - act_0032 + xi_0067_0032 = 0
C_0067_linear_0033: - act_0033 + xi_0067_0033 = 0
C_0067_linear_0034: - act_0034 + xi_0067_0034 = 1
C_0067_linear_0035: - act_0035 + xi_0067_0035 = 0
C_0067_linear_0036: - act_0036 + xi_0067_0036 = 0
C_0067_linear_0037: - act_0037 + xi_0067_0037 = 0
C_0067_linear_0038: - act_0038 + xi_0067_0038 = 0
C_0067_linear_0039: - act_0039 + xi_0067_0039 = 0
C_0067_loss_ge: - 10000 omg_0067 - 0.0111828930987 xi_0067_0000
 + 0.0316585861132 xi_0067_0001 + 0.000106039552982 xi_0067_0002
 + 0.2872356913 xi_0067_0003 + 0.013030358965 xi_0067_0004
 + 0.240120705533 xi_0067_0005 + 0.442580447937 xi_0067_0006
 - 0.375980671537 xi_0067_0007 + 0.392374151169 xi_0067_0008
 + 1.06701819784 xi_0067_0009 - 0.942756746323 xi_0067_0010
 + 0.412027349402 xi_0067_0011 + 0.570359951286 xi_0067_0012
 - 0.852905494999 xi_0067_0013 - 0.323418189169 xi_0067_0014
 + 0.252938924417 xi_0067_0015 - 0.0388599557068 xi_0067_0016
 - 0.020417849004 xi_0067_0017 - 0.119001175529 xi_0067_0018
 + 0.47399163059 xi_0067_0019 - 0.445604107063 xi_0067_0020
 - 0.0184582213876 xi_0067_0021 + 0.307589905785 xi_0067_0022
 + 0.444474821864 xi_0067_0023 - 0.187382383206 xi_0067_0024
 + 0.383302875585 xi_0067_0025 - 0.750161596334 xi_0067_0026
 - 1.33170117681 xi_0067_0027 + 0.0190658885385 xi_0067_0028
 - 0.745784276999 xi_0067_0029 - 0.516231038044 xi_0067_0030
 - 0.409255825925 xi_0067_0031 - 0.0994375517393 xi_0067_0032
 - 0.734256048841 xi_0067_0033 - 0.253933375138 xi_0067_0034
 - 0.256674950149 xi_0067_0035 - 0.732341101218 xi_0067_0036
 - 0.86707443001 xi_0067_0037 - 0.319117177314 xi_0067_0038
 + 0.0697086420108 xi_0067_0039 >= -9998.75705057
C_0067_loss_le: - 10000 omg_0067 - 0.0111828930987 xi_0067_0000
 + 0.0316585861132 xi_0067_0001 + 0.000106039552982 xi_0067_0002
 + 0.2872356913 xi_0067_0003 + 0.013030358965 xi_0067_0004
 + 0.240120705533 xi_0067_0005 + 0.442580447937 xi_0067_0006
 - 0.375980671537 xi_0067_0007 + 0.392374151169 xi_0067_0008
 + 1.06701819784 xi_0067_0009 - 0.942756746323 xi_0067_0010
 + 0.412027349402 xi_0067_0011 + 0.570359951286 xi_0067_0012
 - 0.852905494999 xi_0067_0013 - 0.323418189169 xi_0067_0014
 + 0.252938924417 xi_0067_0015 - 0.0388599557068 xi_0067_0016
 - 0.020417849004 xi_0067_0017 - 0.119001175529 xi_0067_0018
 + 0.47399163059 xi_0067_0019 - 0.445604107063 xi_0067_0020
 - 0.0184582213876 xi_0067_0021 + 0.307589905785 xi_0067_0022
 + 0.444474821864 xi_0067_0023 - 0.187382383206 xi_0067_0024
 + 0.383302875585 xi_0067_0025 - 0.750161596334 xi_0067_0026
 - 1.33170117681 xi_0067_0027 + 0.0190658885385 xi_0067_0028
 - 0.745784276999 xi_0067_0029 - 0.516231038044 xi_0067_0030
 - 0.409255825925 xi_0067_0031 - 0.0994375517393 xi_0067_0032
 - 0.734256048841 xi_0067_0033 - 0.253933375138 xi_0067_0034
 - 0.256674950149 xi_0067_0035 - 0.732341101218 xi_0067_0036
 - 0.86707443001 xi_0067_0037 - 0.319117177314 xi_0067_0038
 + 0.0697086420108 xi_0067_0039 <= 1.24294941651
C_0068_cost_0001: cost_0068 - 0.00352138274643 pi_0001_0000
 - 0.00177674940945 pi_0001_0001 >= 0
C_0068_cost_0002: cost_0068 - 0.000424996008401 pi_0002_0000
 - 0.000408553314724 pi_0002_0001 - 0.000392118404132 pi_0002_0002
 - 0.000375691270661 pi_0002_0003 - 0.000359271908347 pi_0002_0004
 - 0.000342860311229 pi_0002_0005 - 0.000326456473348 pi_0002_0006
 - 0.000310060388747 pi_0002_0007 - 0.000293672051474 pi_0002_0008
 - 0.000277291455576 pi_0002_0009 - 0.000260918595103 pi_0002_0010
 - 0.000244553464109 pi_0002_0011 - 0.000228196056648 pi_0002_0012
 - 0.000211846366779 pi_0002_0013 - 0.000195504388562 pi_0002_0014
 - 0.000179170116059 pi_0002_0015 - 0.000162843543335 pi_0002_0016
 - 0.000146524664458 pi_0002_0017 - 0.000130213473498 pi_0002_0018
 - 0.000113909964525 pi_0002_0019 - 9.7614131617e-05 pi_0002_0020
 - 8.13259688492e-05 pi_0002_0021 - 6.50454703019e-05 pi_0002_0022
 - 4.87726300574e-05 pi_0002_0023 - 3.25074422003e-05 pi_0002_0024
 - 1.62499008178e-05 pi_0002_0025 >= 0
C_0068_cost_0003: cost_0068 >= 0
C_0068_cost_0004: cost_0068 >= 0
C_0068_cost_0005: cost_0068 >= 0
C_0068_cost_0006: cost_0068 >= 0
C_0068_cost_0007: cost_0068 >= 0
C_0068_cost_0008: cost_0068 >= 0
C_0068_cost_0009: cost_0068 >= 0
C_0068_cost_0010: cost_0068 >= 0
C_0068_cost_0011: cost_0068 >= 0
C_0068_cost_0012: cost_0068 >= 0
C_0068_cost_0013: cost_0068 >= 0
C_0068_cost_0014: cost_0068 >= 0
C_0068_cost_0015: cost_0068 >= 0
C_0068_cost_0016: cost_0068 >= 0
C_0068_cost_0017: cost_0068 >= 0
C_0068_cost_0018: cost_0068 >= 0
C_0068_cost_0019: cost_0068 >= 0
C_0068_cost_0020: cost_0068 >= 0
C_0068_cost_0021: cost_0068 >= 0
C_0068_cost_0022: cost_0068 >= 0
C_0068_cost_0023: cost_0068 >= 0
C_0068_cost_0024: cost_0068 >= 0
C_0068_cost_0025: cost_0068 >= 0
C_0068_cost_0026: cost_0068 - 0.0106666652041 pi_0026_0000 >= 0
C_0068_cost_0027: cost_0068 >= 0
C_0068_cost_0028: cost_0068 >= 0
C_0068_cost_0029: cost_0068 - 0.426666385001 pi_0029_0000 >= 0
C_0068_cost_0030: cost_0068 >= 0
C_0068_cost_0031: cost_0068 >= 0
C_0068_cost_0032: cost_0068 >= 0
C_0068_cost_0033: cost_0068 >= 0
C_0068_cost_0034: cost_0068 >= 0
C_0068_cost_0035: cost_0068 >= 0
C_0068_cost_0036: cost_0068 >= 0
C_0068_linear_0000: - act_0000 + xi_0068_0000 = 27
C_0068_linear_0001: - act_0001 + xi_0068_0001 = 60
C_0068_linear_0002: - act_0002 + xi_0068_0002 = 9157
C_0068_linear_0003: - act_0003 + xi_0068_0003 = 2
C_0068_linear_0004: - act_0004 + xi_0068_0004 = 2
C_0068_linear_0005: - act_0005 + xi_0068_0005 = 1
C_0068_linear_0006: - act_0006 + xi_0068_0006 = 0
C_0068_linear_0007: - act_0007 + xi_0068_0007 = 0
C_0068_linear_0008: - act_0008 + xi_0068_0008 = 0
C_0068_linear_0009: - act_0009 + xi_0068_0009 = 0
C_0068_linear_0010: - act_0010 + xi_0068_0010 = 0
C_0068_linear_0011: - act_0011 + xi_0068_0011 = 0
C_0068_linear_0012: - act_0012 + xi_0068_0012 = 0
C_0068_linear_0013: - act_0013 + xi_0068_0013 = 0
C_0068_linear_0014: - act_0014 + xi_0068_0014 = 0
C_0068_linear_0015: - act_0015 + xi_0068_0015 = 0
C_0068_linear_0016: - act_0016 + xi_0068_0016 = 0
C_0068_linear_0017: - act_0017 + xi_0068_0017 = 1
C_0068_linear_0018: - act_0018 + xi_0068_0018 = 0
C_0068_linear_0019: - act_0019 + xi_0068_0019 = 0
C_0068_linear_0020: - act_0020 + xi_0068_0020 = 1
C_0068_linear_0021: - act_0021 + xi_0068_0021 = 0
C_0068_linear_0022: - act_0022 + xi_0068_0022 = 0
C_0068_linear_0023: - act_0023 + xi_0068_0023 = 0
C_0068_linear_0024: - act_0024 + xi_0068_0024 = 0
C_0068_linear_0025: - act_0025 + xi_0068_0025 = 0
C_0068_linear_0026: - act_0026 + xi_0068_0026 = 0
C_0068_linear_0027: - act_0027 + xi_0068_0027 = 0
C_0068_linear_0028: - act_0028 + xi_0068_0028 = 0
C_0068_linear_0029: - act_0029 + xi_0068_0029 = 0
C_0068_linear_0030: - act_0030 + xi_0068_0030 = 1
C_0068_linear_0031: - act_0031 + xi_0068_0031 = 0
C_0068_linear_0032: - act_0032 + xi_0068_0032 = 1
C_0068_linear_0033: - act_0033 + xi_0068_0033 = 0
C_0068_linear_0034: - act_0034 + xi_0068_0034 = 1
C_0068_linear_0035: - act_0035 + xi_0068_0035 = 0
C_0068_linear_0036: - act_0036 + xi_0068_0036 = 0
C_0068_linear_0037: - act_0037 + xi_0068_0037 = 0
C_0068_linear_0038: - act_0038 + xi_0068_0038 = 1
C_0068_linear_0039: - act_0039 + xi_0068_0039 = 1
C_0068_loss_ge: - 10000 omg_0068 - 0.0111828930987 xi_0068_0000
 + 0.0316585861132 xi_0068_0001 + 0.000106039552982 xi_0068_0002
 + 0.2872356913 xi_0068_0003 + 0.013030358965 xi_0068_0004
 + 0.240120705533 xi_0068_0005 + 0.442580447937 xi_0068_0006
 - 0.375980671537 xi_0068_0007 + 0.392374151169 xi_0068_0008
 + 1.06701819784 xi_0068_0009 - 0.942756746323 xi_0068_0010
 + 0.412027349402 xi_0068_0011 + 0.570359951286 xi_0068_0012
 - 0.852905494999 xi_0068_0013 - 0.323418189169 xi_0068_0014
 + 0.252938924417 xi_0068_0015 - 0.0388599557068 xi_0068_0016
 - 0.020417849004 xi_0068_0017 - 0.119001175529 xi_0068_0018
 + 0.47399163059 xi_0068_0019 - 0.445604107063 xi_0068_0020
 - 0.0184582213876 xi_0068_0021 + 0.307589905785 xi_0068_0022
 + 0.444474821864 xi_0068_0023 - 0.187382383206 xi_0068_0024
 + 0.383302875585 xi_0068_0025 - 0.750161596334 xi_0068_0026
 - 1.33170117681 xi_0068_0027 + 0.0190658885385 xi_0068_0028
 - 0.745784276999 xi_0068_0029 - 0.516231038044 xi_0068_0030
 - 0.409255825925 xi_0068_0031 - 0.0994375517393 xi_0068_0032
 - 0.734256048841 xi_0068_0033 - 0.253933375138 xi_0068_0034
 - 0.256674950149 xi_0068_0035 - 0.732341101218 xi_0068_0036
 - 0.86707443001 xi_0068_0037 - 0.319117177314 xi_0068_0038
 + 0.0697086420108 xi_0068_0039 >= -9998.75705057
C_0068_loss_le: - 10000 omg_0068 - 0.0111828930987 xi_0068_0000
 + 0.0316585861132 xi_0068_0001 + 0.000106039552982 xi_0068_0002
 + 0.2872356913 xi_0068_0003 + 0.013030358965 xi_0068_0004
 + 0.240120705533 xi_0068_0005 + 0.442580447937 xi_0068_0006
 - 0.375980671537 xi_0068_0007 + 0.392374151169 xi_0068_0008
 + 1.06701819784 xi_0068_0009 - 0.942756746323 xi_0068_0010
 + 0.412027349402 xi_0068_0011 + 0.570359951286 xi_0068_0012
 - 0.852905494999 xi_0068_0013 - 0.323418189169 xi_0068_0014
 + 0.252938924417 xi_0068_0015 - 0.0388599557068 xi_0068_0016
 - 0.020417849004 xi_0068_0017 - 0.119001175529 xi_0068_0018
 + 0.47399163059 xi_0068_0019 - 0.445604107063 xi_0068_0020
 - 0.0184582213876 xi_0068_0021 + 0.307589905785 xi_0068_0022
 + 0.444474821864 xi_0068_0023 - 0.187382383206 xi_0068_0024
 + 0.383302875585 xi_0068_0025 - 0.750161596334 xi_0068_0026
 - 1.33170117681 xi_0068_0027 + 0.0190658885385 xi_0068_0028
 - 0.745784276999 xi_0068_0029 - 0.516231038044 xi_0068_0030
 - 0.409255825925 xi_0068_0031 - 0.0994375517393 xi_0068_0032
 - 0.734256048841 xi_0068_0033 - 0.253933375138 xi_0068_0034
 - 0.256674950149 xi_0068_0035 - 0.732341101218 xi_0068_0036
 - 0.86707443001 xi_0068_0037 - 0.319117177314 xi_0068_0038
 + 0.0697086420108 xi_0068_0039 <= 1.24294941651
C_0069_cost_0001: cost_0069 - 0.0653909198978 pi_0001_0000
 - 0.0317669758175 pi_0001_0001 >= 0
C_0069_cost_0002: cost_0069 - 0.00650444687138 pi_0002_0000
 - 0.00625362947236 pi_0002_0001 - 0.00600286285135 pi_0002_0002
 - 0.00575214712613 pi_0002_0003 - 0.00550148241424 pi_0002_0004
 - 0.00525086883297 pi_0002_0005 - 0.0050003064994 pi_0002_0006
 - 0.00474979553033 pi_0002_0007 - 0.00449933604237 pi_0002_0008
 - 0.00424892815184 pi_0002_0009 - 0.00399857197485 pi_0002_0010
 - 0.00374826762728 pi_0002_0011 - 0.00349801522474 pi_0002_0012
 - 0.00324781488262 pi_0002_0013 - 0.00299766671608 pi_0002_0014
 - 0.00274757084002 pi_0002_0015 - 0.00249752736912 pi_0002_0016
 - 0.0022475364178 pi_0002_0017 - 0.00199759810025 pi_0002_0018
 - 0.00174771253044 pi_0002_0019 - 0.00149787982206 pi_0002_0020
 - 0.00124810008861 pi_0002_0021 - 0.000998373443311 pi_0002_0022
 - 0.000748699999162 pi_0002_0023 - 0.000499079868922 pi_0002_0024
 - 0.000249513165108 pi_0002_0025 >= 0
C_0069_cost_0003: cost_0069 >= 0
C_0069_cost_0004: cost_0069 >= 0
C_0069_cost_0005: cost_0069 >= 0
C_0069_cost_0006: cost_0069 >= 0
C_0069_cost_0007: cost_0069 >= 0
C_0069_cost_0008: cost_0069 >= 0
C_0069_cost_0009: cost_0069 >= 0
C_0069_cost_0010: cost_0069 >= 0
C_0069_cost_0011: cost_0069 >= 0
C_0069_cost_0012: cost_0069 >= 0
C_0069_cost_0013: cost_0069 >= 0
C_0069_cost_0014: cost_0069 >= 0
C_0069_cost_0015: cost_0069 >= 0
C_0069_cost_0016: cost_0069 >= 0
C_0069_cost_0017: cost_0069 >= 0
C_0069_cost_0018: cost_0069 >= 0
C_0069_cost_0019: cost_0069 >= 0
C_0069_cost_0020: cost_0069 >= 0
C_0069_cost_0021: cost_0069 >= 0
C_0069_cost_0022: cost_0069 >= 0
C_0069_cost_0023: cost_0069 >= 0
C_0069_cost_0024: cost_0069 >= 0
C_0069_cost_0025: cost_0069 >= 0
C_0069_cost_0026: cost_0069 - 0.0106666652041 pi_0026_0000 >= 0
C_0069_cost_0027: cost_0069 >= 0
C_0069_cost_0028: cost_0069 >= 0
C_0069_cost_0029: cost_0069 - 0.426666385001 pi_0029_0000 >= 0
C_0069_cost_0030: cost_0069 >= 0
C_0069_cost_0031: cost_0069 >= 0
C_0069_cost_0032: cost_0069 >= 0
C_0069_cost_0033: cost_0069 >= 0
C_0069_cost_0034: cost_0069 >= 0
C_0069_cost_0035: cost_0069 >= 0
C_0069_cost_0036: cost_0069 >= 0
C_0069_linear_0000: - act_0000 + xi_0069_0000 = 23
C_0069_linear_0001: - act_0001 + xi_0069_0001 = 18
C_0069_linear_0002: - act_0002 + xi_0069_0002 = 1943
C_0069_linear_0003: - act_0003 + xi_0069_0003 = 4
C_0069_linear_0004: - act_0004 + xi_0069_0004 = 4
C_0069_linear_0005: - act_0005 + xi_0069_0005 = 1
C_0069_linear_0006: - act_0006 + xi_0069_0006 = 0
C_0069_linear_0007: - act_0007 + xi_0069_0007 = 0
C_0069_linear_0008: - act_0008 + xi_0069_0008 = 1
C_0069_linear_0009: - act_0009 + xi_0069_0009 = 0
C_0069_linear_0010: - act_0010 + xi_0069_0010 = 0
C_0069_linear_0011: - act_0011 + xi_0069_0011 = 0
C_0069_linear_0012: - act_0012 + xi_0069_0012 = 0
C_0069_linear_0013: - act_0013 + xi_0069_0013 = 0
C_0069_linear_0014: - act_0014 + xi_0069_0014 = 1
C_0069_linear_0015: - act_0015 + xi_0069_0015 = 0
C_0069_linear_0016: - act_0016 + xi_0069_0016 = 0
C_0069_linear_0017: - act_0017 + xi_0069_0017 = 1
C_0069_linear_0018: - act_0018 + xi_0069_0018 = 0
C_0069_linear_0019: - act_0019 + xi_0069_0019 = 0
C_0069_linear_0020: - act_0020 + xi_0069_0020 = 0
C_0069_linear_0021: - act_0021 + xi_0069_0021 = 0
C_0069_linear_0022: - act_0022 + xi_0069_0022 = 0
C_0069_linear_0023: - act_0023 + xi_0069_0023 = 0
C_0069_linear_0024: - act_0024 + xi_0069_0024 = 0
C_0069_linear_0025: - act_0025 + xi_0069_0025 = 1
C_0069_linear_0026: - act_0026 + xi_0069_0026 = 0
C_0069_linear_0027: - act_0027 + xi_0069_0027 = 0
C_0069_linear_0028: - act_0028 + xi_0069_0028 = 1
C_0069_linear_0029: - act_0029 + xi_0069_0029 = 0
C_0069_linear_0030: - act_0030 + xi_0069_0030 = 0
C_0069_linear_0031: - act_0031 + xi_0069_0031 = 1
C_0069_linear_0032: - act_0032 + xi_0069_0032 = 0
C_0069_linear_0033: - act_0033 + xi_0069_0033 = 0
C_0069_linear_0034: - act_0034 + xi_0069_0034 = 1
C_0069_linear_0035: - act_0035 + xi_0069_0035 = 0
C_0069_linear_0036: - act_0036 + xi_0069_0036 = 0
C_0069_linear_0037: - act_0037 + xi_0069_0037 = 0
C_0069_linear_0038: - act_0038 + xi_0069_0038 = 0
C_0069_linear_0039: - act_0039 + xi_0069_0039 = 0
C_0069_loss_ge: - 10000 omg_0069 - 0.0111828930987 xi_0069_0000
 + 0.0316585861132 xi_0069_0001 + 0.000106039552982 xi_0069_0002
 + 0.2872356913 xi_0069_0003 + 0.013030358965 xi_0069_0004
 + 0.240120705533 xi_0069_0005 + 0.442580447937 xi_0069_0006
 - 0.375980671537 xi_0069_0007 + 0.392374151169 xi_0069_0008
 + 1.06701819784 xi_0069_0009 - 0.942756746323 xi_0069_0010
 + 0.412027349402 xi_0069_0011 + 0.570359951286 xi_0069_0012
 - 0.852905494999 xi_0069_0013 - 0.323418189169 xi_0069_0014
 + 0.252938924417 xi_0069_0015 - 0.0388599557068 xi_0069_0016
 - 0.020417849004 xi_0069_0017 - 0.119001175529 xi_0069_0018
 + 0.47399163059 xi_0069_0019 - 0.445604107063 xi_0069_0020
 - 0.0184582213876 xi_0069_0021 + 0.307589905785 xi_0069_0022
 + 0.444474821864 xi_0069_0023 - 0.187382383206 xi_0069_0024
 + 0.383302875585 xi_0069_0025 - 0.750161596334 xi_0069_0026
 - 1.33170117681 xi_0069_0027 + 0.0190658885385 xi_0069_0028
 - 0.745784276999 xi_0069_0029 - 0.516231038044 xi_0069_0030
 - 0.409255825925 xi_0069_0031 - 0.0994375517393 xi_0069_0032
 - 0.734256048841 xi_0069_0033 - 0.253933375138 xi_0069_0034
 - 0.256674950149 xi_0069_0035 - 0.732341101218 xi_0069_0036
 - 0.86707443001 xi_0069_0037 - 0.319117177314 xi_0069_0038
 + 0.0697086420108 xi_0069_0039 >= -9998.75705057
C_0069_loss_le: - 10000 omg_0069 - 0.0111828930987 xi_0069_0000
 + 0.0316585861132 xi_0069_0001 + 0.000106039552982 xi_0069_0002
 + 0.2872356913 xi_0069_0003 + 0.013030358965 xi_0069_0004
 + 0.240120705533 xi_0069_0005 + 0.442580447937 xi_0069_0006
 - 0.375980671537 xi_0069_0007 + 0.392374151169 xi_0069_0008
 + 1.06701819784 xi_0069_0009 - 0.942756746323 xi_0069_0010
 + 0.412027349402 xi_0069_0011 + 0.570359951286 xi_0069_0012
 - 0.852905494999 xi_0069_0013 - 0.323418189169 xi_0069_0014
 + 0.252938924417 xi_0069_0015 - 0.0388599557068 xi_0069_0016
 - 0.020417849004 xi_0069_0017 - 0.119001175529 xi_0069_0018
 + 0.47399163059 xi_0069_0019 - 0.445604107063 xi_0069_0020
 - 0.0184582213876 xi_0069_0021 + 0.307589905785 xi_0069_0022
 + 0.444474821864 xi_0069_0023 - 0.187382383206 xi_0069_0024
 + 0.383302875585 xi_0069_0025 - 0.750161596334 xi_0069_0026
 - 1.33170117681 xi_0069_0027 + 0.0190658885385 xi_0069_0028
 - 0.745784276999 xi_0069_0029 - 0.516231038044 xi_0069_0030
 - 0.409255825925 xi_0069_0031 - 0.0994375517393 xi_0069_0032
 - 0.734256048841 xi_0069_0033 - 0.253933375138 xi_0069_0034
 - 0.256674950149 xi_0069_0035 - 0.732341101218 xi_0069_0036
 - 0.86707443001 xi_0069_0037 - 0.319117177314 xi_0069_0038
 + 0.0697086420108 xi_0069_0039 <= 1.24294941651
C_0070_cost_0001: cost_0070 - 0.0653909198978 pi_0001_0000
 - 0.0317669758175 pi_0001_0001 >= 0
C_0070_cost_0002: cost_0070 - 0.00658138757411 pi_0002_0000
 - 0.00632770490059 pi_0002_0001 - 0.00607406537036 pi_0002_0002
 - 0.0058204691157 pi_0002_0003 - 0.00556691626863 pi_0002_0004
 - 0.00531340696095 pi_0002_0005 - 0.00505994132422 pi_0002_0006
 - 0.00480651948975 pi_0002_0007 - 0.00455314158865 pi_0002_0008
 - 0.00429980775175 pi_0002_0009 - 0.00404651810968 pi_0002_0010
 - 0.00379327279281 pi_0002_0011 - 0.0035400719313 pi_0002_0012
 - 0.00328691565504 pi_0002_0013 - 0.00303380409371 pi_0002_0014
 - 0.00278073737675 pi_0002_0015 - 0.00252771563335 pi_0002_0016
 - 0.00227473899248 pi_0002_0017 - 0.00202180758286 pi_0002_0018
 - 0.00176892153298 pi_0002_0019 - 0.0015160809711 pi_0002_0020
 - 0.00126328602523 pi_0002_0021 - 0.00101053682315 pi_0002_0022
 - 0.000757833492394 pi_0002_0023 - 0.000505176160281 pi_0002_0024
 - 0.000252564953873 pi_0002_0025 >= 0
C_0070_cost_0003: cost_0070 >= 0
C_0070_cost_0004: cost_0070 >= 0
C_0070_cost_0005: cost_0070 >= 0
C_0070_cost_0006: cost_0070 >= 0
C_0070_cost_0007: cost_0070 >= 0
C_0070_cost_0008: cost_0070 >= 0
C_0070_cost_0009: cost_0070 >= 0
C_0070_cost_0010: cost_0070 >= 0
C_0070_cost_0011: cost_0070 >= 0
C_0070_cost_0012: cost_0070 >= 0
C_0070_cost_0013: cost_0070 >= 0
C_0070_cost_0014: cost_0070 >= 0
C_0070_cost_0015: cost_0070 >= 0
C_0070_cost_0016: cost_0070 >= 0
C_0070_cost_0017: cost_0070 >= 0
C_0070_cost_0018: cost_0070 >= 0
C_0070_cost_0019: cost_0070 >= 0
C_0070_cost_0020: cost_0070 >= 0
C_0070_cost_0021: cost_0070 >= 0
C_0070_cost_0022: cost_0070 >= 0
C_0070_cost_0023: cost_0070 >= 0
C_0070_cost_0024: cost_0070 >= 0
C_0070_cost_0025: cost_0070 >= 0
C_0070_cost_0026: cost_0070 - 0.0106666652041 pi_0026_0000 >= 0
C_0070_cost_0027: cost_0070 >= 0
C_0070_cost_0028: cost_0070 >= 0
C_0070_cost_0029: cost_0070 - 0.426666385001 pi_0029_0000 >= 0
C_0070_cost_0030: cost_0070 >= 0
C_0070_cost_0031: cost_0070 >= 0
C_0070_cost_0032: cost_0070 >= 0
C_0070_cost_0033: cost_0070 >= 0
C_0070_cost_0034: cost_0070 >= 0
C_0070_cost_0035: cost_0070 >= 0
C_0070_cost_0036: cost_0070 >= 0
C_0070_linear_0000: - act_0000 + xi_0070_0000 = 25
C_0070_linear_0001: - act_0001 + xi_0070_0001 = 18
C_0070_linear_0002: - act_0002 + xi_0070_0002 = 1882
C_0070_linear_0003: - act_0003 + xi_0070_0003 = 4
C_0070_linear_0004: - act_0004 + xi_0070_0004 = 4
C_0070_linear_0005: - act_0005 + xi_0070_0005 = 2
C_0070_linear_0006: - act_0006 + xi_0070_0006 = 0
C_0070_linear_0007: - act_0007 + xi_0070_0007 = 0
C_0070_linear_0008: - act_0008 + xi_0070_0008 = 1
C_0070_linear_0009: - act_0009 + xi_0070_0009 = 0
C_0070_linear_0010: - act_0010 + xi_0070_0010 = 0
C_0070_linear_0011: - act_0011 + xi_0070_0011 = 1
C_0070_linear_0012: - act_0012 + xi_0070_0012 = 0
C_0070_linear_0013: - act_0013 + xi_0070_0013 = 0
C_0070_linear_0014: - act_0014 + xi_0070_0014 = 0
C_0070_linear_0015: - act_0015 + xi_0070_0015 = 1
C_0070_linear_0016: - act_0016 + xi_0070_0016 = 0
C_0070_linear_0017: - act_0017 + xi_0070_0017 = 1
C_0070_linear_0018: - act_0018 + xi_0070_0018 = 0
C_0070_linear_0019: - act_0019 + xi_0070_0019 = 0
C_0070_linear_0020: - act_0020 + xi_0070_0020 = 1
C_0070_linear_0021: - act_0021 + xi_0070_0021 = 0
C_0070_linear_0022: - act_0022 + xi_0070_0022 = 0
C_0070_linear_0023: - act_0023 + xi_0070_0023 = 0
C_0070_linear_0024: - act_0024 + xi_0070_0024 = 0
C_0070_linear_0025: - act_0025 + xi_0070_0025 = 0
C_0070_linear_0026: - act_0026 + xi_0070_0026 = 0
C_0070_linear_0027: - act_0027 + xi_0070_0027 = 0
C_0070_linear_0028: - act_0028 + xi_0070_0028 = 0
C_0070_linear_0029: - act_0029 + xi_0070_0029 = 0
C_0070_linear_0030: - act_0030 + xi_0070_0030 = 1
C_0070_linear_0031: - act_0031 + xi_0070_0031 = 1
C_0070_linear_0032: - act_0032 + xi_0070_0032 = 0
C_0070_linear_0033: - act_0033 + xi_0070_0033 = 0
C_0070_linear_0034: - act_0034 + xi_0070_0034 = 1
C_0070_linear_0035: - act_0035 + xi_0070_0035 = 0
C_0070_linear_0036: - act_0036 + xi_0070_0036 = 0
C_0070_linear_0037: - act_0037 + xi_0070_0037 = 0
C_0070_linear_0038: - act_0038 + xi_0070_0038 = 0
C_0070_linear_0039: - act_0039 + xi_0070_0039 = 0
C_0070_loss_ge: - 10000 omg_0070 - 0.0111828930987 xi_0070_0000
 + 0.0316585861132 xi_0070_0001 + 0.000106039552982 xi_0070_0002
 + 0.2872356913 xi_0070_0003 + 0.013030358965 xi_0070_0004
 + 0.240120705533 xi_0070_0005 + 0.442580447937 xi_0070_0006
 - 0.375980671537 xi_0070_0007 + 0.392374151169 xi_0070_0008
 + 1.06701819784 xi_0070_0009 - 0.942756746323 xi_0070_0010
 + 0.412027349402 xi_0070_0011 + 0.570359951286 xi_0070_0012
 - 0.852905494999 xi_0070_0013 - 0.323418189169 xi_0070_0014
 + 0.252938924417 xi_0070_0015 - 0.0388599557068 xi_0070_0016
 - 0.020417849004 xi_0070_0017 - 0.119001175529 xi_0070_0018
 + 0.47399163059 xi_0070_0019 - 0.445604107063 xi_0070_0020
 - 0.0184582213876 xi_0070_0021 + 0.307589905785 xi_0070_0022
 + 0.444474821864 xi_0070_0023 - 0.187382383206 xi_0070_0024
 + 0.383302875585 xi_0070_0025 - 0.750161596334 xi_0070_0026
 - 1.33170117681 xi_0070_0027 + 0.0190658885385 xi_0070_0028
 - 0.745784276999 xi_0070_0029 - 0.516231038044 xi_0070_0030
 - 0.409255825925 xi_0070_0031 - 0.0994375517393 xi_0070_0032
 - 0.734256048841 xi_0070_0033 - 0.253933375138 xi_0070_0034
 - 0.256674950149 xi_0070_0035 - 0.732341101218 xi_0070_0036
 - 0.86707443001 xi_0070_0037 - 0.319117177314 xi_0070_0038
 + 0.0697086420108 xi_0070_0039 >= -9998.75705057
C_0070_loss_le: - 10000 omg_0070 - 0.0111828930987 xi_0070_0000
 + 0.0316585861132 xi_0070_0001 + 0.000106039552982 xi_0070_0002
 + 0.2872356913 xi_0070_0003 + 0.013030358965 xi_0070_0004
 + 0.240120705533 xi_0070_0005 + 0.442580447937 xi_0070_0006
 - 0.375980671537 xi_0070_0007 + 0.392374151169 xi_0070_0008
 + 1.06701819784 xi_0070_0009 - 0.942756746323 xi_0070_0010
 + 0.412027349402 xi_0070_0011 + 0.570359951286 xi_0070_0012
 - 0.852905494999 xi_0070_0013 - 0.323418189169 xi_0070_0014
 + 0.252938924417 xi_0070_0015 - 0.0388599557068 xi_0070_0016
 - 0.020417849004 xi_0070_0017 - 0.119001175529 xi_0070_0018
 + 0.47399163059 xi_0070_0019 - 0.445604107063 xi_0070_0020
 - 0.0184582213876 xi_0070_0021 + 0.307589905785 xi_0070_0022
 + 0.444474821864 xi_0070_0023 - 0.187382383206 xi_0070_0024
 + 0.383302875585 xi_0070_0025 - 0.750161596334 xi_0070_0026
 - 1.33170117681 xi_0070_0027 + 0.0190658885385 xi_0070_0028
 - 0.745784276999 xi_0070_0029 - 0.516231038044 xi_0070_0030
 - 0.409255825925 xi_0070_0031 - 0.0994375517393 xi_0070_0032
 - 0.734256048841 xi_0070_0033 - 0.253933375138 xi_0070_0034
 - 0.256674950149 xi_0070_0035 - 0.732341101218 xi_0070_0036
 - 0.86707443001 xi_0070_0037 - 0.319117177314 xi_0070_0038
 + 0.0697086420108 xi_0070_0039 <= 1.24294941651
C_0071_cost_0001: cost_0071 - 0.0246929068628 pi_0001_0000
 - 0.0123216428276 pi_0001_0001 >= 0
C_0071_cost_0002: cost_0071 - 0.00266227080472 pi_0002_0000
 - 0.00255915125135 pi_0002_0001 - 0.00245608982074 pi_0002_0002
 - 0.00235308649281 pi_0002_0003 - 0.00225014124752 pi_0002_0004
 - 0.00214725406478 pi_0002_0005 - 0.00204442492451 pi_0002_0006
 - 0.00194165380662 pi_0002_0007 - 0.00183894069098 pi_0002_0008
 - 0.00173628555748 pi_0002_0009 - 0.00163368838599 pi_0002_0010
 - 0.00153114915636 pi_0002_0011 - 0.00142866784844 pi_0002_0012
 - 0.00132624444205 pi_0002_0013 - 0.00122387891701 pi_0002_0014
 - 0.00112157125313 pi_0002_0015 - 0.00101932143021 pi_0002_0016
 - 0.000917129428032 pi_0002_0017 - 0.000814995226364 pi_0002_0018
 - 0.000712918804966 pi_0002_0019 - 0.000610900143586 pi_0002_0020
 - 0.00050893922196 pi_0002_0021 - 0.000407036019809 pi_0002_0022
 - 0.000305190516845 pi_0002_0023 - 0.000203402692767 pi_0002_0024
 - 0.000101672527261 pi_0002_0025 >= 0
C_0071_cost_0003: cost_0071 >= 0
C_0071_cost_0004: cost_0071 >= 0
C_0071_cost_0005: cost_0071 >= 0
C_0071_cost_0006: cost_0071 >= 0
C_0071_cost_0007: cost_0071 >= 0
C_0071_cost_0008: cost_0071 >= 0
C_0071_cost_0009: cost_0071 >= 0
C_0071_cost_0010: cost_0071 >= 0
C_0071_cost_0011: cost_0071 >= 0
C_0071_cost_0012: cost_0071 >= 0
C_0071_cost_0013: cost_0071 >= 0
C_0071_cost_0014: cost_0071 >= 0
C_0071_cost_0015: cost_0071 >= 0
C_0071_cost_0016: cost_0071 >= 0
C_0071_cost_0017: cost_0071 >= 0
C_0071_cost_0018: cost_0071 >= 0
C_0071_cost_0019: cost_0071 >= 0
C_0071_cost_0020: cost_0071 >= 0
C_0071_cost_0021: cost_0071 >= 0
C_0071_cost_0022: cost_0071 >= 0
C_0071_cost_0023: cost_0071 >= 0
C_0071_cost_0024: cost_0071 >= 0
C_0071_cost_0025: cost_0071 >= 0
C_0071_cost_0026: cost_0071 - 0.0106666652041 pi_0026_0000 >= 0
C_0071_cost_0027: cost_0071 >= 0
C_0071_cost_0028: cost_0071 >= 0
C_0071_cost_0029: cost_0071 - 0.426666385001 pi_0029_0000 >= 0
C_0071_cost_0030: cost_0071 >= 0
C_0071_cost_0031: cost_0071 >= 0
C_0071_cost_0032: cost_0071 >= 0
C_0071_cost_0033: cost_0071 >= 0
C_0071_cost_0034: cost_0071 >= 0
C_0071_cost_0035: cost_0071 >= 0
C_0071_cost_0036: cost_0071 >= 0
C_0071_linear_0000: - act_0000 + xi_0071_0000 = 29
C_0071_linear_0001: - act_0001 + xi_0071_0001 = 36
C_0071_linear_0002: - act_0002 + xi_0071_0002 = 3990
C_0071_linear_0003: - act_0003 + xi_0071_0003 = 3
C_0071_linear_0004: - act_0004 + xi_0071_0004 = 2
C_0071_linear_0005: - act_0005 + xi_0071_0005 = 1
C_0071_linear_0006: - act_0006 + xi_0071_0006 = 0
C_0071_linear_0007: - act_0007 + xi_0071_0007 = 0
C_0071_linear_0008: - act_0008 + xi_0071_0008 = 1
C_0071_linear_0009: - act_0009 + xi_0071_0009 = 1
C_0071_linear_0010: - act_0010 + xi_0071_0010 = 0
C_0071_linear_0011: - act_0011 + xi_0071_0011 = 1
C_0071_linear_0012: - act_0012 + xi_0071_0012 = 0
C_0071_linear_0013: - act_0013 + xi_0071_0013 = 0
C_0071_linear_0014: - act_0014 + xi_0071_0014 = 1
C_0071_linear_0015: - act_0015 + xi_0071_0015 = 0
C_0071_linear_0016: - act_0016 + xi_0071_0016 = 0
C_0071_linear_0017: - act_0017 + xi_0071_0017 = 0
C_0071_linear_0018: - act_0018 + xi_0071_0018 = 0
C_0071_linear_0019: - act_0019 + xi_0071_0019 = 0
C_0071_linear_0020: - act_0020 + xi_0071_0020 = 0
C_0071_linear_0021: - act_0021 + xi_0071_0021 = 0
C_0071_linear_0022: - act_0022 + xi_0071_0022 = 1
C_0071_linear_0023: - act_0023 + xi_0071_0023 = 0
C_0071_linear_0024: - act_0024 + xi_0071_0024 = 0
C_0071_linear_0025: - act_0025 + xi_0071_0025 = 0
C_0071_linear_0026: - act_0026 + xi_0071_0026 = 0
C_0071_linear_0027: - act_0027 + xi_0071_0027 = 0
C_0071_linear_0028: - act_0028 + xi_0071_0028 = 1
C_0071_linear_0029: - act_0029 + xi_0071_0029 = 0
C_0071_linear_0030: - act_0030 + xi_0071_0030 = 0
C_0071_linear_0031: - act_0031 + xi_0071_0031 = 0
C_0071_linear_0032: - act_0032 + xi_0071_0032 = 1
C_0071_linear_0033: - act_0033 + xi_0071_0033 = 0
C_0071_linear_0034: - act_0034 + xi_0071_0034 = 1
C_0071_linear_0035: - act_0035 + xi_0071_0035 = 0
C_0071_linear_0036: - act_0036 + xi_0071_0036 = 0
C_0071_linear_0037: - act_0037 + xi_0071_0037 = 0
C_0071_linear_0038: - act_0038 + xi_0071_0038 = 0
C_0071_linear_0039: - act_0039 + xi_0071_0039 = 0
C_0071_loss_ge: - 10000 omg_0071 - 0.0111828930987 xi_0071_0000
 + 0.0316585861132 xi_0071_0001 + 0.000106039552982 xi_0071_0002
 + 0.2872356913 xi_0071_0003 + 0.013030358965 xi_0071_0004
 + 0.240120705533 xi_0071_0005 + 0.442580447937 xi_0071_0006
 - 0.375980671537 xi_0071_0007 + 0.392374151169 xi_0071_0008
 + 1.06701819784 xi_0071_0009 - 0.942756746323 xi_0071_0010
 + 0.412027349402 xi_0071_0011 + 0.570359951286 xi_0071_0012
 - 0.852905494999 xi_0071_0013 - 0.323418189169 xi_0071_0014
 + 0.252938924417 xi_0071_0015 - 0.0388599557068 xi_0071_0016
 - 0.020417849004 xi_0071_0017 - 0.119001175529 xi_0071_0018
 + 0.47399163059 xi_0071_0019 - 0.445604107063 xi_0071_0020
 - 0.0184582213876 xi_0071_0021 + 0.307589905785 xi_0071_0022
 + 0.444474821864 xi_0071_0023 - 0.187382383206 xi_0071_0024
 + 0.383302875585 xi_0071_0025 - 0.750161596334 xi_0071_0026
 - 1.33170117681 xi_0071_0027 + 0.0190658885385 xi_0071_0028
 - 0.745784276999 xi_0071_0029 - 0.516231038044 xi_0071_0030
 - 0.409255825925 xi_0071_0031 - 0.0994375517393 xi_0071_0032
 - 0.734256048841 xi_0071_0033 - 0.253933375138 xi_0071_0034
 - 0.256674950149 xi_0071_0035 - 0.732341101218 xi_0071_0036
 - 0.86707443001 xi_0071_0037 - 0.319117177314 xi_0071_0038
 + 0.0697086420108 xi_0071_0039 >= -9998.75705057
C_0071_loss_le: - 10000 omg_0071 - 0.0111828930987 xi_0071_0000
 + 0.0316585861132 xi_0071_0001 + 0.000106039552982 xi_0071_0002
 + 0.2872356913 xi_0071_0003 + 0.013030358965 xi_0071_0004
 + 0.240120705533 xi_0071_0005 + 0.442580447937 xi_0071_0006
 - 0.375980671537 xi_0071_0007 + 0.392374151169 xi_0071_0008
 + 1.06701819784 xi_0071_0009 - 0.942756746323 xi_0071_0010
 + 0.412027349402 xi_0071_0011 + 0.570359951286 xi_0071_0012
 - 0.852905494999 xi_0071_0013 - 0.323418189169 xi_0071_0014
 + 0.252938924417 xi_0071_0015 - 0.0388599557068 xi_0071_0016
 - 0.020417849004 xi_0071_0017 - 0.119001175529 xi_0071_0018
 + 0.47399163059 xi_0071_0019 - 0.445604107063 xi_0071_0020
 - 0.0184582213876 xi_0071_0021 + 0.307589905785 xi_0071_0022
 + 0.444474821864 xi_0071_0023 - 0.187382383206 xi_0071_0024
 + 0.383302875585 xi_0071_0025 - 0.750161596334 xi_0071_0026
 - 1.33170117681 xi_0071_0027 + 0.0190658885385 xi_0071_0028
 - 0.745784276999 xi_0071_0029 - 0.516231038044 xi_0071_0030
 - 0.409255825925 xi_0071_0031 - 0.0994375517393 xi_0071_0032
 - 0.734256048841 xi_0071_0033 - 0.253933375138 xi_0071_0034
 - 0.256674950149 xi_0071_0035 - 0.732341101218 xi_0071_0036
 - 0.86707443001 xi_0071_0037 - 0.319117177314 xi_0071_0038
 + 0.0697086420108 xi_0071_0039 <= 1.24294941651
C_0072_cost_0001: cost_0072 - 0.0809651761744 pi_0001_0000
 - 0.0391052057863 pi_0001_0001 >= 0
C_0072_cost_0002: cost_0072 - 0.00344093363038 pi_0002_0000
 - 0.0033105883546 pi_0002_0001 - 0.00318008350657 pi_0002_0002
 - 0.00304941904781 pi_0002_0003 - 0.00291859494012 pi_0002_0004
 - 0.00278761114561 pi_0002_0005 - 0.00265646762673 pi_0002_0006
 - 0.00252516434619 pi_0002_0007 - 0.00239370126704 pi_0002_0008
 - 0.00226207835263 pi_0002_0009 - 0.00213029556662 pi_0002_0010
 - 0.00199835287297 pi_0002_0011 - 0.00186625023595 pi_0002_0012
 - 0.00173398762017 pi_0002_0013 - 0.00160156499051 pi_0002_0014
 - 0.00146898231218 pi_0002_0015 - 0.0013362395507 pi_0002_0016
 - 0.00120333667191 pi_0002_0017 - 0.00107027364193 pi_0002_0018
 - 0.000937050427237 pi_0002_0019 - 0.000803666994584 pi_0002_0020
 - 0.000670123311055 pi_0002_0021 - 0.000536419344042 pi_0002_0022
 - 0.000402555061253 pi_0002_0023 - 0.000268530430707 pi_0002_0024
 - 0.000134345420739 pi_0002_0025 >= 0
C_0072_cost_0003: cost_0072 >= 0
C_0072_cost_0004: cost_0072 >= 0
C_0072_cost_0005: cost_0072 >= 0
C_0072_cost_0006: cost_0072 >= 0
C_0072_cost_0007: cost_0072 >= 0
C_0072_cost_0008: cost_0072 >= 0
C_0072_cost_0009: cost_0072 >= 0
C_0072_cost_0010: cost_0072 >= 0
C_0072_cost_0011: cost_0072 >= 0
C_0072_cost_0012: cost_0072 >= 0
C_0072_cost_0013: cost_0072 >= 0
C_0072_cost_0014: cost_0072 >= 0
C_0072_cost_0015: cost_0072 >= 0
C_0072_cost_0016: cost_0072 >= 0
C_0072_cost_0017: cost_0072 >= 0
C_0072_cost_0018: cost_0072 >= 0
C_0072_cost_0019: cost_0072 >= 0
C_0072_cost_0020: cost_0072 >= 0
C_0072_cost_0021: cost_0072 >= 0
C_0072_cost_0022: cost_0072 >= 0
C_0072_cost_0023: cost_0072 >= 0
C_0072_cost_0024: cost_0072 >= 0
C_0072_cost_0025: cost_0072 >= 0
C_0072_cost_0026: cost_0072 - 0.0106666652041 pi_0026_0000 >= 0
C_0072_cost_0027: cost_0072 >= 0
C_0072_cost_0028: cost_0072 >= 0
C_0072_cost_0029: cost_0072 - 0.426666385001 pi_0029_0000 >= 0
C_0072_cost_0030: cost_0072 >= 0
C_0072_cost_0031: cost_0072 >= 0
C_0072_cost_0032: cost_0072 >= 0
C_0072_cost_0033: cost_0072 >= 0
C_0072_cost_0034: cost_0072 >= 0
C_0072_cost_0035: cost_0072 >= 0
C_0072_cost_0036: cost_0072 >= 0
C_0072_linear_0000: - act_0000 + xi_0072_0000 = 23
C_0072_linear_0001: - act_0001 + xi_0072_0001 = 15
C_0072_linear_0002: - act_0002 + xi_0072_0002 = 392
C_0072_linear_0003: - act_0003 + xi_0072_0003 = 4
C_0072_linear_0004: - act_0004 + xi_0072_0004 = 4
C_0072_linear_0005: - act_0005 + xi_0072_0005 = 1
C_0072_linear_0006: - act_0006 + xi_0072_0006 = 0
C_0072_linear_0007: - act_0007 + xi_0072_0007 = 1
C_0072_linear_0008: - act_0008 + xi_0072_0008 = 1
C_0072_linear_0009: - act_0009 + xi_0072_0009 = 0
C_0072_linear_0010: - act_0010 + xi_0072_0010 = 0
C_0072_linear_0011: - act_0011 + xi_0072_0011 = 0
C_0072_linear_0012: - act_0012 + xi_0072_0012 = 0
C_0072_linear_0013: - act_0013 + xi_0072_0013 = 0
C_0072_linear_0014: - act_0014 + xi_0072_0014 = 0
C_0072_linear_0015: - act_0015 + xi_0072_0015 = 1
C_0072_linear_0016: - act_0016 + xi_0072_0016 = 0
C_0072_linear_0017: - act_0017 + xi_0072_0017 = 1
C_0072_linear_0018: - act_0018 + xi_0072_0018 = 0
C_0072_linear_0019: - act_0019 + xi_0072_0019 = 1
C_0072_linear_0020: - act_0020 + xi_0072_0020 = 0
C_0072_linear_0021: - act_0021 + xi_0072_0021 = 0
C_0072_linear_0022: - act_0022 + xi_0072_0022 = 0
C_0072_linear_0023: - act_0023 + xi_0072_0023 = 0
C_0072_linear_0024: - act_0024 + xi_0072_0024 = 0
C_0072_linear_0025: - act_0025 + xi_0072_0025 = 0
C_0072_linear_0026: - act_0026 + xi_0072_0026 = 0
C_0072_linear_0027: - act_0027 + xi_0072_0027 = 0
C_0072_linear_0028: - act_0028 + xi_0072_0028 = 1
C_0072_linear_0029: - act_0029 + xi_0072_0029 = 0
C_0072_linear_0030: - act_0030 + xi_0072_0030 = 0
C_0072_linear_0031: - act_0031 + xi_0072_0031 = 0
C_0072_linear_0032: - act_0032 + xi_0072_0032 = 0
C_0072_linear_0033: - act_0033 + xi_0072_0033 = 1
C_0072_linear_0034: - act_0034 + xi_0072_0034 = 1
C_0072_linear_0035: - act_0035 + xi_0072_0035 = 0
C_0072_linear_0036: - act_0036 + xi_0072_0036 = 0
C_0072_linear_0037: - act_0037 + xi_0072_0037 = 0
C_0072_linear_0038: - act_0038 + xi_0072_0038 = 0
C_0072_linear_0039: - act_0039 + xi_0072_0039 = 0
C_0072_loss_ge: - 10000 omg_0072 - 0.0111828930987 xi_0072_0000
 + 0.0316585861132 xi_0072_0001 + 0.000106039552982 xi_0072_0002
 + 0.2872356913 xi_0072_0003 + 0.013030358965 xi_0072_0004
 + 0.240120705533 xi_0072_0005 + 0.442580447937 xi_0072_0006
 - 0.375980671537 xi_0072_0007 + 0.392374151169 xi_0072_0008
 + 1.06701819784 xi_0072_0009 - 0.942756746323 xi_0072_0010
 + 0.412027349402 xi_0072_0011 + 0.570359951286 xi_0072_0012
 - 0.852905494999 xi_0072_0013 - 0.323418189169 xi_0072_0014
 + 0.252938924417 xi_0072_0015 - 0.0388599557068 xi_0072_0016
 - 0.020417849004 xi_0072_0017 - 0.119001175529 xi_0072_0018
 + 0.47399163059 xi_0072_0019 - 0.445604107063 xi_0072_0020
 - 0.0184582213876 xi_0072_0021 + 0.307589905785 xi_0072_0022
 + 0.444474821864 xi_0072_0023 - 0.187382383206 xi_0072_0024
 + 0.383302875585 xi_0072_0025 - 0.750161596334 xi_0072_0026
 - 1.33170117681 xi_0072_0027 + 0.0190658885385 xi_0072_0028
 - 0.745784276999 xi_0072_0029 - 0.516231038044 xi_0072_0030
 - 0.409255825925 xi_0072_0031 - 0.0994375517393 xi_0072_0032
 - 0.734256048841 xi_0072_0033 - 0.253933375138 xi_0072_0034
 - 0.256674950149 xi_0072_0035 - 0.732341101218 xi_0072_0036
 - 0.86707443001 xi_0072_0037 - 0.319117177314 xi_0072_0038
 + 0.0697086420108 xi_0072_0039 >= -9998.75705057
C_0072_loss_le: - 10000 omg_0072 - 0.0111828930987 xi_0072_0000
 + 0.0316585861132 xi_0072_0001 + 0.000106039552982 xi_0072_0002
 + 0.2872356913 xi_0072_0003 + 0.013030358965 xi_0072_0004
 + 0.240120705533 xi_0072_0005 + 0.442580447937 xi_0072_0006
 - 0.375980671537 xi_0072_0007 + 0.392374151169 xi_0072_0008
 + 1.06701819784 xi_0072_0009 - 0.942756746323 xi_0072_0010
 + 0.412027349402 xi_0072_0011 + 0.570359951286 xi_0072_0012
 - 0.852905494999 xi_0072_0013 - 0.323418189169 xi_0072_0014
 + 0.252938924417 xi_0072_0015 - 0.0388599557068 xi_0072_0016
 - 0.020417849004 xi_0072_0017 - 0.119001175529 xi_0072_0018
 + 0.47399163059 xi_0072_0019 - 0.445604107063 xi_0072_0020
 - 0.0184582213876 xi_0072_0021 + 0.307589905785 xi_0072_0022
 + 0.444474821864 xi_0072_0023 - 0.187382383206 xi_0072_0024
 + 0.383302875585 xi_0072_0025 - 0.750161596334 xi_0072_0026
 - 1.33170117681 xi_0072_0027 + 0.0190658885385 xi_0072_0028
 - 0.745784276999 xi_0072_0029 - 0.516231038044 xi_0072_0030
 - 0.409255825925 xi_0072_0031 - 0.0994375517393 xi_0072_0032
 - 0.734256048841 xi_0072_0033 - 0.253933375138 xi_0072_0034
 - 0.256674950149 xi_0072_0035 - 0.732341101218 xi_0072_0036
 - 0.86707443001 xi_0072_0037 - 0.319117177314 xi_0072_0038
 + 0.0697086420108 xi_0072_0039 <= 1.24294941651
C_0073_cost_0001: cost_0073 - 0.0109361010253 pi_0001_0000
 - 0.00508688801619 pi_0001_0001 >= 0
C_0073_cost_0002: cost_0073 - 0.00364663708174 pi_0002_0000
 - 0.00350551678623 pi_0002_0001 - 0.00336446584991 pi_0002_0002
 - 0.00322348425305 pi_0002_0003 - 0.00308257197597 pi_0002_0004
 - 0.00294172899895 pi_0002_0005 - 0.00280095530232 pi_0002_0006
 - 0.00266025086639 pi_0002_0007 - 0.0025196156715 pi_0002_0008
 - 0.00237904969797 pi_0002_0009 - 0.00223855292616 pi_0002_0010
 - 0.0020981253364 pi_0002_0011 - 0.00195776690907 pi_0002_0012
 - 0.00181747762453 pi_0002_0013 - 0.00167725746314 pi_0002_0014
 - 0.00153710640531 pi_0002_0015 - 0.0013970244314 pi_0002_0016
 - 0.00125701152183 pi_0002_0017 - 0.001117067657 pi_0002_0018
 - 0.000977192817311 pi_0002_0019 - 0.000837386983197 pi_0002_0020
 - 0.00069765013508 pi_0002_0021 - 0.000557982253399 pi_0002_0022
 - 0.000418383318595 pi_0002_0023 - 0.00027885331112 pi_0002_0024
 - 0.000139392211433 pi_0002_0025 >= 0
C_0073_cost_0003: cost_0073 >= 0
C_0073_cost_0004: cost_0073 >= 0
C_0073_cost_0005: cost_0073 >= 0
C_0073_cost_0006: cost_0073 >= 0
C_0073_cost_0007: cost_0073 >= 0
C_0073_cost_0008: cost_0073 >= 0
C_0073_cost_0009: cost_0073 >= 0
C_0073_cost_0010: cost_0073 >= 0
C_0073_cost_0011: cost_0073 >= 0
C_0073_cost_0012: cost_0073 >= 0
C_0073_cost_0013: cost_0073 >= 0
C_0073_cost_0014: cost_0073 >= 0
C_0073_cost_0015: cost_0073 >= 0
C_0073_cost_0016: cost_0073 >= 0
C_0073_cost_0017: cost_0073 >= 0
C_0073_cost_0018: cost_0073 >= 0
C_0073_cost_0019: cost_0073 >= 0
C_0073_cost_0020: cost_0073 >= 0
C_0073_cost_0021: cost_0073 >= 0
C_0073_cost_0022: cost_0073 >= 0
C_0073_cost_0023: cost_0073 >= 0
C_0073_cost_0024: cost_0073 >= 0
C_0073_cost_0025: cost_0073 >= 0
C_0073_cost_0026: cost_0073 - 0.0106666652041 pi_0026_0000 >= 0
C_0073_cost_0027: cost_0073 >= 0
C_0073_cost_0028: cost_0073 >= 0
C_0073_cost_0029: cost_0073 - 0.426666385001 pi_0029_0000 >= 0
C_0073_cost_0030: cost_0073 >= 0
C_0073_cost_0031: cost_0073 >= 0
C_0073_cost_0032: cost_0073 >= 0
C_0073_cost_0033: cost_0073 >= 0
C_0073_cost_0034: cost_0073 >= 0
C_0073_cost_0035: cost_0073 >= 0
C_0073_cost_0036: cost_0073 >= 0
C_0073_linear_0000: - act_0000 + xi_0073_0000 = 65
C_0073_linear_0001: - act_0001 + xi_0073_0001 = 42
C_0073_linear_0002: - act_0002 + xi_0073_0002 = 3394
C_0073_linear_0003: - act_0003 + xi_0073_0003 = 4
C_0073_linear_0004: - act_0004 + xi_0073_0004 = 4
C_0073_linear_0005: - act_0005 + xi_0073_0005 = 2
C_0073_linear_0006: - act_0006 + xi_0073_0006 = 0
C_0073_linear_0007: - act_0007 + xi_0073_0007 = 0
C_0073_linear_0008: - act_0008 + xi_0073_0008 = 1
C_0073_linear_0009: - act_0009 + xi_0073_0009 = 0
C_0073_linear_0010: - act_0010 + xi_0073_0010 = 1
C_0073_linear_0011: - act_0011 + xi_0073_0011 = 0
C_0073_linear_0012: - act_0012 + xi_0073_0012 = 1
C_0073_linear_0013: - act_0013 + xi_0073_0013 = 0
C_0073_linear_0014: - act_0014 + xi_0073_0014 = 1
C_0073_linear_0015: - act_0015 + xi_0073_0015 = 0
C_0073_linear_0016: - act_0016 + xi_0073_0016 = 1
C_0073_linear_0017: - act_0017 + xi_0073_0017 = 0
C_0073_linear_0018: - act_0018 + xi_0073_0018 = 0
C_0073_linear_0019: - act_0019 + xi_0073_0019 = 0
C_0073_linear_0020: - act_0020 + xi_0073_0020 = 0
C_0073_linear_0021: - act_0021 + xi_0073_0021 = 0
C_0073_linear_0022: - act_0022 + xi_0073_0022 = 0
C_0073_linear_0023: - act_0023 + xi_0073_0023 = 0
C_0073_linear_0024: - act_0024 + xi_0073_0024 = 0
C_0073_linear_0025: - act_0025 + xi_0073_0025 = 1
C_0073_linear_0026: - act_0026 + xi_0073_0026 = 0
C_0073_linear_0027: - act_0027 + xi_0073_0027 = 0
C_0073_linear_0028: - act_0028 + xi_0073_0028 = 0
C_0073_linear_0029: - act_0029 + xi_0073_0029 = 0
C_0073_linear_0030: - act_0030 + xi_0073_0030 = 1
C_0073_linear_0031: - act_0031 + xi_0073_0031 = 1
C_0073_linear_0032: - act_0032 + xi_0073_0032 = 0
C_0073_linear_0033: - act_0033 + xi_0073_0033 = 0
C_0073_linear_0034: - act_0034 + xi_0073_0034 = 1
C_0073_linear_0035: - act_0035 + xi_0073_0035 = 0
C_0073_linear_0036: - act_0036 + xi_0073_0036 = 0
C_0073_linear_0037: - act_0037 + xi_0073_0037 = 0
C_0073_linear_0038: - act_0038 + xi_0073_0038 = 1
C_0073_linear_0039: - act_0039 + xi_0073_0039 = 1
C_0073_loss_ge: - 10000 omg_0073 - 0.0111828930987 xi_0073_0000
 + 0.0316585861132 xi_0073_0001 + 0.000106039552982 xi_0073_0002
 + 0.2872356913 xi_0073_0003 + 0.013030358965 xi_0073_0004
 + 0.240120705533 xi_0073_0005 + 0.442580447937 xi_0073_0006
 - 0.375980671537 xi_0073_0007 + 0.392374151169 xi_0073_0008
 + 1.06701819784 xi_0073_0009 - 0.942756746323 xi_0073_0010
 + 0.412027349402 xi_0073_0011 + 0.570359951286 xi_0073_0012
 - 0.852905494999 xi_0073_0013 - 0.323418189169 xi_0073_0014
 + 0.252938924417 xi_0073_0015 - 0.0388599557068 xi_0073_0016
 - 0.020417849004 xi_0073_0017 - 0.119001175529 xi_0073_0018
 + 0.47399163059 xi_0073_0019 - 0.445604107063 xi_0073_0020
 - 0.0184582213876 xi_0073_0021 + 0.307589905785 xi_0073_0022
 + 0.444474821864 xi_0073_0023 - 0.187382383206 xi_0073_0024
 + 0.383302875585 xi_0073_0025 - 0.750161596334 xi_0073_0026
 - 1.33170117681 xi_0073_0027 + 0.0190658885385 xi_0073_0028
 - 0.745784276999 xi_0073_0029 - 0.516231038044 xi_0073_0030
 - 0.409255825925 xi_0073_0031 - 0.0994375517393 xi_0073_0032
 - 0.734256048841 xi_0073_0033 - 0.253933375138 xi_0073_0034
 - 0.256674950149 xi_0073_0035 - 0.732341101218 xi_0073_0036
 - 0.86707443001 xi_0073_0037 - 0.319117177314 xi_0073_0038
 + 0.0697086420108 xi_0073_0039 >= -9998.75705057
C_0073_loss_le: - 10000 omg_0073 - 0.0111828930987 xi_0073_0000
 + 0.0316585861132 xi_0073_0001 + 0.000106039552982 xi_0073_0002
 + 0.2872356913 xi_0073_0003 + 0.013030358965 xi_0073_0004
 + 0.240120705533 xi_0073_0005 + 0.442580447937 xi_0073_0006
 - 0.375980671537 xi_0073_0007 + 0.392374151169 xi_0073_0008
 + 1.06701819784 xi_0073_0009 - 0.942756746323 xi_0073_0010
 + 0.412027349402 xi_0073_0011 + 0.570359951286 xi_0073_0012
 - 0.852905494999 xi_0073_0013 - 0.323418189169 xi_0073_0014
 + 0.252938924417 xi_0073_0015 - 0.0388599557068 xi_0073_0016
 - 0.020417849004 xi_0073_0017 - 0.119001175529 xi_0073_0018
 + 0.47399163059 xi_0073_0019 - 0.445604107063 xi_0073_0020
 - 0.0184582213876 xi_0073_0021 + 0.307589905785 xi_0073_0022
 + 0.444474821864 xi_0073_0023 - 0.187382383206 xi_0073_0024
 + 0.383302875585 xi_0073_0025 - 0.750161596334 xi_0073_0026
 - 1.33170117681 xi_0073_0027 + 0.0190658885385 xi_0073_0028
 - 0.745784276999 xi_0073_0029 - 0.516231038044 xi_0073_0030
 - 0.409255825925 xi_0073_0031 - 0.0994375517393 xi_0073_0032
 - 0.734256048841 xi_0073_0033 - 0.253933375138 xi_0073_0034
 - 0.256674950149 xi_0073_0035 - 0.732341101218 xi_0073_0036
 - 0.86707443001 xi_0073_0037 - 0.319117177314 xi_0073_0038
 + 0.0697086420108 xi_0073_0039 <= 1.24294941651
C_0074_cost_0001: cost_0074 - 0.0275526923386 pi_0001_0000
 - 0.0126479830791 pi_0001_0001 >= 0
C_0074_cost_0002: cost_0074 - 0.00017827567485 pi_0002_0000
 - 0.000171400588697 pi_0002_0001 - 0.000164526975521 pi_0002_0002
 - 0.000157654834478 pi_0002_0003 - 0.000150784164727 pi_0002_0004
 - 0.00014391496543 pi_0002_0005 - 0.000137047235751 pi_0002_0006
 - 0.000130180974859 pi_0002_0007 - 0.000123316181923 pi_0002_0008
 - 0.000116452856116 pi_0002_0009 - 0.000109590996614 pi_0002_0010
 - 0.000102730602595 pi_0002_0011 - 9.58716732394e-05 pi_0002_0012
 - 8.9014207732e-05 pi_0002_0013 - 8.21582052588e-05 pi_0002_0014
 - 7.53036650095e-05 pi_0002_0015 - 6.84505861762e-05 pi_0002_0016
 - 6.15989679538e-05 pi_0002_0017 - 5.47488095402e-05 pi_0002_0018
 - 4.79001101357e-05 pi_0002_0019 - 4.10528689437e-05 pi_0002_0020
 - 3.42070851705e-05 pi_0002_0021 - 2.73627580252e-05 pi_0002_0022
 - 2.05198867193e-05 pi_0002_0023 - 1.36784704676e-05 pi_0002_0024
 - 6.83850848782e-06 pi_0002_0025 >= 0
C_0074_cost_0003: cost_0074 >= 0
C_0074_cost_0004: cost_0074 >= 0
C_0074_cost_0005: cost_0074 >= 0
C_0074_cost_0006: cost_0074 >= 0
C_0074_cost_0007: cost_0074 >= 0
C_0074_cost_0008: cost_0074 >= 0
C_0074_cost_0009: cost_0074 >= 0
C_0074_cost_0010: cost_0074 >= 0
C_0074_cost_0011: cost_0074 >= 0
C_0074_cost_0012: cost_0074 >= 0
C_0074_cost_0013: cost_0074 >= 0
C_0074_cost_0014: cost_0074 >= 0
C_0074_cost_0015: cost_0074 >= 0
C_0074_cost_0016: cost_0074 >= 0
C_0074_cost_0017: cost_0074 >= 0
C_0074_cost_0018: cost_0074 >= 0
C_0074_cost_0019: cost_0074 >= 0
C_0074_cost_0020: cost_0074 >= 0
C_0074_cost_0021: cost_0074 >= 0
C_0074_cost_0022: cost_0074 >= 0
C_0074_cost_0023: cost_0074 >= 0
C_0074_cost_0024: cost_0074 >= 0
C_0074_cost_0025: cost_0074 >= 0
C_0074_cost_0026: cost_0074 - 0.0106666652041 pi_0026_0000 >= 0
C_0074_cost_0027: cost_0074 >= 0
C_0074_cost_0028: cost_0074 >= 0
C_0074_cost_0029: cost_0074 - 0.426666385001 pi_0029_0000 >= 0
C_0074_cost_0030: cost_0074 >= 0
C_0074_cost_0031: cost_0074 >= 0
C_0074_cost_0032: cost_0074 >= 0
C_0074_cost_0033: cost_0074 >= 0
C_0074_cost_0034: cost_0074 >= 0
C_0074_cost_0035: cost_0074 >= 0
C_0074_cost_0036: cost_0074 >= 0
C_0074_linear_0000: - act_0000 + xi_0074_0000 = 34
C_0074_linear_0001: - act_0001 + xi_0074_0001 = 30
C_0074_linear_0002: - act_0002 + xi_0074_0002 = 11998
C_0074_linear_0003: - act_0003 + xi_0074_0003 = 1
C_0074_linear_0004: - act_0004 + xi_0074_0004 = 1
C_0074_linear_0005: - act_0005 + xi_0074_0005 = 1
C_0074_linear_0006: - act_0006 + xi_0074_0006 = 0
C_0074_linear_0007: - act_0007 + xi_0074_0007 = 1
C_0074_linear_0008: - act_0008 + xi_0074_0008 = 1
C_0074_linear_0009: - act_0009 + xi_0074_0009 = 0
C_0074_linear_0010: - act_0010 + xi_0074_0010 = 0
C_0074_linear_0011: - act_0011 + xi_0074_0011 = 0
C_0074_linear_0012: - act_0012 + xi_0074_0012 = 0
C_0074_linear_0013: - act_0013 + xi_0074_0013 = 0
C_0074_linear_0014: - act_0014 + xi_0074_0014 = 1
C_0074_linear_0015: - act_0015 + xi_0074_0015 = 0
C_0074_linear_0016: - act_0016 + xi_0074_0016 = 0
C_0074_linear_0017: - act_0017 + xi_0074_0017 = 0
C_0074_linear_0018: - act_0018 + xi_0074_0018 = 0
C_0074_linear_0019: - act_0019 + xi_0074_0019 = 0
C_0074_linear_0020: - act_0020 + xi_0074_0020 = 0
C_0074_linear_0021: - act_0021 + xi_0074_0021 = 0
C_0074_linear_0022: - act_0022 + xi_0074_0022 = 0
C_0074_linear_0023: - act_0023 + xi_0074_0023 = 0
C_0074_linear_0024: - act_0024 + xi_0074_0024 = 0
C_0074_linear_0025: - act_0025 + xi_0074_0025 = 1
C_0074_linear_0026: - act_0026 + xi_0074_0026 = 0
C_0074_linear_0027: - act_0027 + xi_0074_0027 = 0
C_0074_linear_0028: - act_0028 + xi_0074_0028 = 1
C_0074_linear_0029: - act_0029 + xi_0074_0029 = 0
C_0074_linear_0030: - act_0030 + xi_0074_0030 = 0
C_0074_linear_0031: - act_0031 + xi_0074_0031 = 1
C_0074_linear_0032: - act_0032 + xi_0074_0032 = 0
C_0074_linear_0033: - act_0033 + xi_0074_0033 = 0
C_0074_linear_0034: - act_0034 + xi_0074_0034 = 1
C_0074_linear_0035: - act_0035 + xi_0074_0035 = 0
C_0074_linear_0036: - act_0036 + xi_0074_0036 = 0
C_0074_linear_0037: - act_0037 + xi_0074_0037 = 0
C_0074_linear_0038: - act_0038 + xi_0074_0038 = 0
C_0074_linear_0039: - act_0039 + xi_0074_0039 = 1
C_0074_loss_ge: - 10000 omg_0074 - 0.0111828930987 xi_0074_0000
 + 0.0316585861132 xi_0074_0001 + 0.000106039552982 xi_0074_0002
 + 0.2872356913 xi_0074_0003 + 0.013030358965 xi_0074_0004
 + 0.240120705533 xi_0074_0005 + 0.442580447937 xi_0074_0006
 - 0.375980671537 xi_0074_0007 + 0.392374151169 xi_0074_0008
 + 1.06701819784 xi_0074_0009 - 0.942756746323 xi_0074_0010
 + 0.412027349402 xi_0074_0011 + 0.570359951286 xi_0074_0012
 - 0.852905494999 xi_0074_0013 - 0.323418189169 xi_0074_0014
 + 0.252938924417 xi_0074_0015 - 0.0388599557068 xi_0074_0016
 - 0.020417849004 xi_0074_0017 - 0.119001175529 xi_0074_0018
 + 0.47399163059 xi_0074_0019 - 0.445604107063 xi_0074_0020
 - 0.0184582213876 xi_0074_0021 + 0.307589905785 xi_0074_0022
 + 0.444474821864 xi_0074_0023 - 0.187382383206 xi_0074_0024
 + 0.383302875585 xi_0074_0025 - 0.750161596334 xi_0074_0026
 - 1.33170117681 xi_0074_0027 + 0.0190658885385 xi_0074_0028
 - 0.745784276999 xi_0074_0029 - 0.516231038044 xi_0074_0030
 - 0.409255825925 xi_0074_0031 - 0.0994375517393 xi_0074_0032
 - 0.734256048841 xi_0074_0033 - 0.253933375138 xi_0074_0034
 - 0.256674950149 xi_0074_0035 - 0.732341101218 xi_0074_0036
 - 0.86707443001 xi_0074_0037 - 0.319117177314 xi_0074_0038
 + 0.0697086420108 xi_0074_0039 >= -9998.75705057
C_0074_loss_le: - 10000 omg_0074 - 0.0111828930987 xi_0074_0000
 + 0.0316585861132 xi_0074_0001 + 0.000106039552982 xi_0074_0002
 + 0.2872356913 xi_0074_0003 + 0.013030358965 xi_0074_0004
 + 0.240120705533 xi_0074_0005 + 0.442580447937 xi_0074_0006
 - 0.375980671537 xi_0074_0007 + 0.392374151169 xi_0074_0008
 + 1.06701819784 xi_0074_0009 - 0.942756746323 xi_0074_0010
 + 0.412027349402 xi_0074_0011 + 0.570359951286 xi_0074_0012
 - 0.852905494999 xi_0074_0013 - 0.323418189169 xi_0074_0014
 + 0.252938924417 xi_0074_0015 - 0.0388599557068 xi_0074_0016
 - 0.020417849004 xi_0074_0017 - 0.119001175529 xi_0074_0018
 + 0.47399163059 xi_0074_0019 - 0.445604107063 xi_0074_0020
 - 0.0184582213876 xi_0074_0021 + 0.307589905785 xi_0074_0022
 + 0.444474821864 xi_0074_0023 - 0.187382383206 xi_0074_0024
 + 0.383302875585 xi_0074_0025 - 0.750161596334 xi_0074_0026
 - 1.33170117681 xi_0074_0027 + 0.0190658885385 xi_0074_0028
 - 0.745784276999 xi_0074_0029 - 0.516231038044 xi_0074_0030
 - 0.409255825925 xi_0074_0031 - 0.0994375517393 xi_0074_0032
 - 0.734256048841 xi_0074_0033 - 0.253933375138 xi_0074_0034
 - 0.256674950149 xi_0074_0035 - 0.732341101218 xi_0074_0036
 - 0.86707443001 xi_0074_0037 - 0.319117177314 xi_0074_0038
 + 0.0697086420108 xi_0074_0039 <= 1.24294941651
C_0075_cost_0001: cost_0075 - 0.0639671434312 pi_0001_0000
 - 0.0315831062354 pi_0001_0001 >= 0
C_0075_cost_0002: cost_0075 - 0.00647389355377 pi_0002_0000
 - 0.00622422010962 pi_0002_0001 - 0.00597459997938 pi_0002_0002
 - 0.00572503327556 pi_0002_0003 - 0.00547552011046 pi_0002_0004
 - 0.00522606059609 pi_0002_0005 - 0.00497665484428 pi_0002_0006
 - 0.00472730296657 pi_0002_0007 - 0.0044780050743 pi_0002_0008
 - 0.00422876127854 pi_0002_0009 - 0.00397957169014 pi_0002_0010
 - 0.00373043641971 pi_0002_0011 - 0.00348135557761 pi_0002_0012
 - 0.00323232927398 pi_0002_0013 - 0.00298335761869 pi_0002_0014
 - 0.0027344407214 pi_0002_0015 - 0.00248557869153 pi_0002_0016
 - 0.00223677163823 pi_0002_0017 - 0.00198801967046 pi_0002_0018
 - 0.00173932289689 pi_0002_0019 - 0.00149068142599 pi_0002_0020
 - 0.00124209536597 pi_0002_0021 - 0.000993564824817 pi_0002_0022
 - 0.00074508991026 pi_0002_0023 - 0.000496670729804 pi_0002_0024
 - 0.000248307390709 pi_0002_0025 >= 0
C_0075_cost_0003: cost_0075 >= 0
C_0075_cost_0004: cost_0075 >= 0
C_0075_cost_0005: cost_0075 >= 0
C_0075_cost_0006: cost_0075 >= 0
C_0075_cost_0007: cost_0075 >= 0
C_0075_cost_0008: cost_0075 >= 0
C_0075_cost_0009: cost_0075 >= 0
C_0075_cost_0010: cost_0075 >= 0
C_0075_cost_0011: cost_0075 >= 0
C_0075_cost_0012: cost_0075 >= 0
C_0075_cost_0013: cost_0075 >= 0
C_0075_cost_0014: cost_0075 >= 0
C_0075_cost_0015: cost_0075 >= 0
C_0075_cost_0016: cost_0075 >= 0
C_0075_cost_0017: cost_0075 >= 0
C_0075_cost_0018: cost_0075 >= 0
C_0075_cost_0019: cost_0075 >= 0
C_0075_cost_0020: cost_0075 >= 0
C_0075_cost_0021: cost_0075 >= 0
C_0075_cost_0022: cost_0075 >= 0
C_0075_cost_0023: cost_0075 >= 0
C_0075_cost_0024: cost_0075 >= 0
C_0075_cost_0025: cost_0075 >= 0
C_0075_cost_0026: cost_0075 - 0.0106666652041 pi_0026_0000 >= 0
C_0075_cost_0027: cost_0075 >= 0
C_0075_cost_0028: cost_0075 >= 0
C_0075_cost_0029: cost_0075 - 0.426666385001 pi_0029_0000 >= 0
C_0075_cost_0030: cost_0075 >= 0
C_0075_cost_0031: cost_0075 >= 0
C_0075_cost_0032: cost_0075 >= 0
C_0075_cost_0033: cost_0075 >= 0
C_0075_cost_0034: cost_0075 >= 0
C_0075_cost_0035: cost_0075 >= 0
C_0075_cost_0036: cost_0075 >= 0
C_0075_linear_0000: - act_0000 + xi_0075_0000 = 42
C_0075_linear_0001: - act_0001 + xi_0075_0001 = 24
C_0075_linear_0002: - act_0002 + xi_0075_0002 = 1965
C_0075_linear_0003: - act_0003 + xi_0075_0003 = 4
C_0075_linear_0004: - act_0004 + xi_0075_0004 = 4
C_0075_linear_0005: - act_0005 + xi_0075_0005 = 2
C_0075_linear_0006: - act_0006 + xi_0075_0006 = 0
C_0075_linear_0007: - act_0007 + xi_0075_0007 = 1
C_0075_linear_0008: - act_0008 + xi_0075_0008 = 0
C_0075_linear_0009: - act_0009 + xi_0075_0009 = 0
C_0075_linear_0010: - act_0010 + xi_0075_0010 = 0
C_0075_linear_0011: - act_0011 + xi_0075_0011 = 0
C_0075_linear_0012: - act_0012 + xi_0075_0012 = 0
C_0075_linear_0013: - act_0013 + xi_0075_0013 = 0
C_0075_linear_0014: - act_0014 + xi_0075_0014 = 0
C_0075_linear_0015: - act_0015 + xi_0075_0015 = 1
C_0075_linear_0016: - act_0016 + xi_0075_0016 = 0
C_0075_linear_0017: - act_0017 + xi_0075_0017 = 1
C_0075_linear_0018: - act_0018 + xi_0075_0018 = 0
C_0075_linear_0019: - act_0019 + xi_0075_0019 = 0
C_0075_linear_0020: - act_0020 + xi_0075_0020 = 0
C_0075_linear_0021: - act_0021 + xi_0075_0021 = 0
C_0075_linear_0022: - act_0022 + xi_0075_0022 = 0
C_0075_linear_0023: - act_0023 + xi_0075_0023 = 1
C_0075_linear_0024: - act_0024 + xi_0075_0024 = 0
C_0075_linear_0025: - act_0025 + xi_0075_0025 = 0
C_0075_linear_0026: - act_0026 + xi_0075_0026 = 0
C_0075_linear_0027: - act_0027 + xi_0075_0027 = 0
C_0075_linear_0028: - act_0028 + xi_0075_0028 = 0
C_0075_linear_0029: - act_0029 + xi_0075_0029 = 0
C_0075_linear_0030: - act_0030 + xi_0075_0030 = 1
C_0075_linear_0031: - act_0031 + xi_0075_0031 = 0
C_0075_linear_0032: - act_0032 + xi_0075_0032 = 1
C_0075_linear_0033: - act_0033 + xi_0075_0033 = 0
C_0075_linear_0034: - act_0034 + xi_0075_0034 = 1
C_0075_linear_0035: - act_0035 + xi_0075_0035 = 0
C_0075_linear_0036: - act_0036 + xi_0075_0036 = 0
C_0075_linear_0037: - act_0037 + xi_0075_0037 = 0
C_0075_linear_0038: - act_0038 + xi_0075_0038 = 0
C_0075_linear_0039: - act_0039 + xi_0075_0039 = 0
C_0075_loss_ge: - 10000 omg_0075 - 0.0111828930987 xi_0075_0000
 + 0.0316585861132 xi_0075_0001 + 0.000106039552982 xi_0075_0002
 + 0.2872356913 xi_0075_0003 + 0.013030358965 xi_0075_0004
 + 0.240120705533 xi_0075_0005 + 0.442580447937 xi_0075_0006
 - 0.375980671537 xi_0075_0007 + 0.392374151169 xi_0075_0008
 + 1.06701819784 xi_0075_0009 - 0.942756746323 xi_0075_0010
 + 0.412027349402 xi_0075_0011 + 0.570359951286 xi_0075_0012
 - 0.852905494999 xi_0075_0013 - 0.323418189169 xi_0075_0014
 + 0.252938924417 xi_0075_0015 - 0.0388599557068 xi_0075_0016
 - 0.020417849004 xi_0075_0017 - 0.119001175529 xi_0075_0018
 + 0.47399163059 xi_0075_0019 - 0.445604107063 xi_0075_0020
 - 0.0184582213876 xi_0075_0021 + 0.307589905785 xi_0075_0022
 + 0.444474821864 xi_0075_0023 - 0.187382383206 xi_0075_0024
 + 0.383302875585 xi_0075_0025 - 0.750161596334 xi_0075_0026
 - 1.33170117681 xi_0075_0027 + 0.0190658885385 xi_0075_0028
 - 0.745784276999 xi_0075_0029 - 0.516231038044 xi_0075_0030
 - 0.409255825925 xi_0075_0031 - 0.0994375517393 xi_0075_0032
 - 0.734256048841 xi_0075_0033 - 0.253933375138 xi_0075_0034
 - 0.256674950149 xi_0075_0035 - 0.732341101218 xi_0075_0036
 - 0.86707443001 xi_0075_0037 - 0.319117177314 xi_0075_0038
 + 0.0697086420108 xi_0075_0039 >= -9998.75705057
C_0075_loss_le: - 10000 omg_0075 - 0.0111828930987 xi_0075_0000
 + 0.0316585861132 xi_0075_0001 + 0.000106039552982 xi_0075_0002
 + 0.2872356913 xi_0075_0003 + 0.013030358965 xi_0075_0004
 + 0.240120705533 xi_0075_0005 + 0.442580447937 xi_0075_0006
 - 0.375980671537 xi_0075_0007 + 0.392374151169 xi_0075_0008
 + 1.06701819784 xi_0075_0009 - 0.942756746323 xi_0075_0010
 + 0.412027349402 xi_0075_0011 + 0.570359951286 xi_0075_0012
 - 0.852905494999 xi_0075_0013 - 0.323418189169 xi_0075_0014
 + 0.252938924417 xi_0075_0015 - 0.0388599557068 xi_0075_0016
 - 0.020417849004 xi_0075_0017 - 0.119001175529 xi_0075_0018
 + 0.47399163059 xi_0075_0019 - 0.445604107063 xi_0075_0020
 - 0.0184582213876 xi_0075_0021 + 0.307589905785 xi_0075_0022
 + 0.444474821864 xi_0075_0023 - 0.187382383206 xi_0075_0024
 + 0.383302875585 xi_0075_0025 - 0.750161596334 xi_0075_0026
 - 1.33170117681 xi_0075_0027 + 0.0190658885385 xi_0075_0028
 - 0.745784276999 xi_0075_0029 - 0.516231038044 xi_0075_0030
 - 0.409255825925 xi_0075_0031 - 0.0994375517393 xi_0075_0032
 - 0.734256048841 xi_0075_0033 - 0.253933375138 xi_0075_0034
 - 0.256674950149 xi_0075_0035 - 0.732341101218 xi_0075_0036
 - 0.86707443001 xi_0075_0037 - 0.319117177314 xi_0075_0038
 + 0.0697086420108 xi_0075_0039 <= 1.24294941651
C_0076_cost_0001: cost_0076 - 0.0809651761744 pi_0001_0000
 - 0.0391052057863 pi_0001_0001 >= 0
C_0076_cost_0002: cost_0076 - 0.00106188815614 pi_0002_0000
 - 0.00102094868724 pi_0002_0001 - 0.000980016960743 pi_0002_0002
 - 0.000939092985071 pi_0002_0003 - 0.00089817676864 pi_0002_0004
 - 0.000857268319854 pi_0002_0005 - 0.000816367647108 pi_0002_0006
 - 0.000775474758787 pi_0002_0007 - 0.000734589663267 pi_0002_0008
 - 0.000693712368912 pi_0002_0009 - 0.000652842884078 pi_0002_0010
 - 0.000611981217109 pi_0002_0011 - 0.00057112737634 pi_0002_0012
 - 0.000530281370096 pi_0002_0013 - 0.000489443206691 pi_0002_0014
 - 0.000448612894431 pi_0002_0015 - 0.000407790441609 pi_0002_0016
 - 0.000366975856511 pi_0002_0017 - 0.000326169147409 pi_0002_0018
 - 0.000285370322568 pi_0002_0019 - 0.000244579390242 pi_0002_0020
 - 0.000203796358673 pi_0002_0021 - 0.000163021236096 pi_0002_0022
 - 0.000122254030733 pi_0002_0023 - 8.14947507958e-05 pi_0002_0024
 - 4.07434044876e-05 pi_0002_0025 >= 0
C_0076_cost_0003: cost_0076 >= 0
C_0076_cost_0004: cost_0076 >= 0
C_0076_cost_0005: cost_0076 >= 0
C_0076_cost_0006: cost_0076 >= 0
C_0076_cost_0007: cost_0076 >= 0
C_0076_cost_0008: cost_0076 >= 0
C_0076_cost_0009: cost_0076 >= 0
C_0076_cost_0010: cost_0076 >= 0
C_0076_cost_0011: cost_0076 >= 0
C_0076_cost_0012: cost_0076 >= 0
C_0076_cost_0013: cost_0076 >= 0
C_0076_cost_0014: cost_0076 >= 0
C_0076_cost_0015: cost_0076 >= 0
C_0076_cost_0016: cost_0076 >= 0
C_0076_cost_0017: cost_0076 >= 0
C_0076_cost_0018: cost_0076 >= 0
C_0076_cost_0019: cost_0076 >= 0
C_0076_cost_0020: cost_0076 >= 0
C_0076_cost_0021: cost_0076 >= 0
C_0076_cost_0022: cost_0076 >= 0
C_0076_cost_0023: cost_0076 >= 0
C_0076_cost_0024: cost_0076 >= 0
C_0076_cost_0025: cost_0076 >= 0
C_0076_cost_0026: cost_0076 - 0.0106666652041 pi_0026_0000 >= 0
C_0076_cost_0027: cost_0076 >= 0
C_0076_cost_0028: cost_0076 >= 0
C_0076_cost_0029: cost_0076 - 0.426666385001 pi_0029_0000 >= 0
C_0076_cost_0030: cost_0076 >= 0
C_0076_cost_0031: cost_0076 >= 0
C_0076_cost_0032: cost_0076 >= 0
C_0076_cost_0033: cost_0076 >= 0
C_0076_cost_0034: cost_0076 >= 0
C_0076_cost_0035: cost_0076 >= 0
C_0076_cost_0036: cost_0076 >= 0
C_0076_linear_0000: - act_0000 + xi_0076_0000 = 34
C_0076_linear_0001: - act_0001 + xi_0076_0001 = 15
C_0076_linear_0002: - act_0002 + xi_0076_0002 = 6850
C_0076_linear_0003: - act_0003 + xi_0076_0003 = 1
C_0076_linear_0004: - act_0004 + xi_0076_0004 = 2
C_0076_linear_0005: - act_0005 + xi_0076_0005 = 1
C_0076_linear_0006: - act_0006 + xi_0076_0006 = 1
C_0076_linear_0007: - act_0007 + xi_0076_0007 = 1
C_0076_linear_0008: - act_0008 + xi_0076_0008 = 1
C_0076_linear_0009: - act_0009 + xi_0076_0009 = 1
C_0076_linear_0010: - act_0010 + xi_0076_0010 = 0
C_0076_linear_0011: - act_0011 + xi_0076_0011 = 0
C_0076_linear_0012: - act_0012 + xi_0076_0012 = 0
C_0076_linear_0013: - act_0013 + xi_0076_0013 = 0
C_0076_linear_0014: - act_0014 + xi_0076_0014 = 1
C_0076_linear_0015: - act_0015 + xi_0076_0015 = 0
C_0076_linear_0016: - act_0016 + xi_0076_0016 = 1
C_0076_linear_0017: - act_0017 + xi_0076_0017 = 1
C_0076_linear_0018: - act_0018 + xi_0076_0018 = 0
C_0076_linear_0019: - act_0019 + xi_0076_0019 = 0
C_0076_linear_0020: - act_0020 + xi_0076_0020 = 0
C_0076_linear_0021: - act_0021 + xi_0076_0021 = 0
C_0076_linear_0022: - act_0022 + xi_0076_0022 = 0
C_0076_linear_0023: - act_0023 + xi_0076_0023 = 1
C_0076_linear_0024: - act_0024 + xi_0076_0024 = 0
C_0076_linear_0025: - act_0025 + xi_0076_0025 = 0
C_0076_linear_0026: - act_0026 + xi_0076_0026 = 0
C_0076_linear_0027: - act_0027 + xi_0076_0027 = 0
C_0076_linear_0028: - act_0028 + xi_0076_0028 = 0
C_0076_linear_0029: - act_0029 + xi_0076_0029 = 0
C_0076_linear_0030: - act_0030 + xi_0076_0030 = 1
C_0076_linear_0031: - act_0031 + xi_0076_0031 = 0
C_0076_linear_0032: - act_0032 + xi_0076_0032 = 1
C_0076_linear_0033: - act_0033 + xi_0076_0033 = 0
C_0076_linear_0034: - act_0034 + xi_0076_0034 = 0
C_0076_linear_0035: - act_0035 + xi_0076_0035 = 1
C_0076_linear_0036: - act_0036 + xi_0076_0036 = 0
C_0076_linear_0037: - act_0037 + xi_0076_0037 = 0
C_0076_linear_0038: - act_0038 + xi_0076_0038 = 1
C_0076_linear_0039: - act_0039 + xi_0076_0039 = 1
C_0076_loss_ge: - 10000 omg_0076 - 0.0111828930987 xi_0076_0000
 + 0.0316585861132 xi_0076_0001 + 0.000106039552982 xi_0076_0002
 + 0.2872356913 xi_0076_0003 + 0.013030358965 xi_0076_0004
 + 0.240120705533 xi_0076_0005 + 0.442580447937 xi_0076_0006
 - 0.375980671537 xi_0076_0007 + 0.392374151169 xi_0076_0008
 + 1.06701819784 xi_0076_0009 - 0.942756746323 xi_0076_0010
 + 0.412027349402 xi_0076_0011 + 0.570359951286 xi_0076_0012
 - 0.852905494999 xi_0076_0013 - 0.323418189169 xi_0076_0014
 + 0.252938924417 xi_0076_0015 - 0.0388599557068 xi_0076_0016
 - 0.020417849004 xi_0076_0017 - 0.119001175529 xi_0076_0018
 + 0.47399163059 xi_0076_0019 - 0.445604107063 xi_0076_0020
 - 0.0184582213876 xi_0076_0021 + 0.307589905785 xi_0076_0022
 + 0.444474821864 xi_0076_0023 - 0.187382383206 xi_0076_0024
 + 0.383302875585 xi_0076_0025 - 0.750161596334 xi_0076_0026
 - 1.33170117681 xi_0076_0027 + 0.0190658885385 xi_0076_0028
 - 0.745784276999 xi_0076_0029 - 0.516231038044 xi_0076_0030
 - 0.409255825925 xi_0076_0031 - 0.0994375517393 xi_0076_0032
 - 0.734256048841 xi_0076_0033 - 0.253933375138 xi_0076_0034
 - 0.256674950149 xi_0076_0035 - 0.732341101218 xi_0076_0036
 - 0.86707443001 xi_0076_0037 - 0.319117177314 xi_0076_0038
 + 0.0697086420108 xi_0076_0039 >= -9998.75705057
C_0076_loss_le: - 10000 omg_0076 - 0.0111828930987 xi_0076_0000
 + 0.0316585861132 xi_0076_0001 + 0.000106039552982 xi_0076_0002
 + 0.2872356913 xi_0076_0003 + 0.013030358965 xi_0076_0004
 + 0.240120705533 xi_0076_0005 + 0.442580447937 xi_0076_0006
 - 0.375980671537 xi_0076_0007 + 0.392374151169 xi_0076_0008
 + 1.06701819784 xi_0076_0009 - 0.942756746323 xi_0076_0010
 + 0.412027349402 xi_0076_0011 + 0.570359951286 xi_0076_0012
 - 0.852905494999 xi_0076_0013 - 0.323418189169 xi_0076_0014
 + 0.252938924417 xi_0076_0015 - 0.0388599557068 xi_0076_0016
 - 0.020417849004 xi_0076_0017 - 0.119001175529 xi_0076_0018
 + 0.47399163059 xi_0076_0019 - 0.445604107063 xi_0076_0020
 - 0.0184582213876 xi_0076_0021 + 0.307589905785 xi_0076_0022
 + 0.444474821864 xi_0076_0023 - 0.187382383206 xi_0076_0024
 + 0.383302875585 xi_0076_0025 - 0.750161596334 xi_0076_0026
 - 1.33170117681 xi_0076_0027 + 0.0190658885385 xi_0076_0028
 - 0.745784276999 xi_0076_0029 - 0.516231038044 xi_0076_0030
 - 0.409255825925 xi_0076_0031 - 0.0994375517393 xi_0076_0032
 - 0.734256048841 xi_0076_0033 - 0.253933375138 xi_0076_0034
 - 0.256674950149 xi_0076_0035 - 0.732341101218 xi_0076_0036
 - 0.86707443001 xi_0076_0037 - 0.319117177314 xi_0076_0038
 + 0.0697086420108 xi_0076_0039 <= 1.24294941651
C_0077_cost_0001: cost_0077 - 0.0384268679769 pi_0001_0000
 - 0.0214900900505 pi_0001_0001 >= 0
C_0077_cost_0002: cost_0077 - 0.00558489191137 pi_0002_0000
 - 0.00537171174415 pi_0002_0001 - 0.00515840054955 pi_0002_0002
 - 0.0049449584707 pi_0002_0003 - 0.00473138565097 pi_0002_0004
 - 0.00451768223405 pi_0002_0005 - 0.00430384836391 pi_0002_0006
 - 0.0040898841848 pi_0002_0007 - 0.00387578984125 pi_0002_0008
 - 0.00366156547809 pi_0002_0009 - 0.00344721124042 pi_0002_0010
 - 0.00323272727363 pi_0002_0011 - 0.00301811372338 pi_0002_0012
 - 0.00280337073563 pi_0002_0013 - 0.0025884984566 pi_0002_0014
 - 0.00237349703282 pi_0002_0015 - 0.00215836661108 pi_0002_0016
 - 0.00194310733845 pi_0002_0017 - 0.00172771936228 pi_0002_0018
 - 0.00151220283021 pi_0002_0019 - 0.00129655789015 pi_0002_0020
 - 0.00108078469029 pi_0002_0021 - 0.000864883379094 pi_0002_0022
 - 0.000648854105309 pi_0002_0023 - 0.000432697017955 pi_0002_0024
 - 0.000216412266328 pi_0002_0025 >= 0
C_0077_cost_0003: cost_0077 >= 0
C_0077_cost_0004: cost_0077 >= 0
C_0077_cost_0005: cost_0077 >= 0
C_0077_cost_0006: cost_0077 >= 0
C_0077_cost_0007: cost_0077 >= 0
C_0077_cost_0008: cost_0077 >= 0
C_0077_cost_0009: cost_0077 >= 0
C_0077_cost_0010: cost_0077 >= 0
C_0077_cost_0011: cost_0077 >= 0
C_0077_cost_0012: cost_0077 >= 0
C_0077_cost_0013: cost_0077 >= 0
C_0077_cost_0014: cost_0077 >= 0
C_0077_cost_0015: cost_0077 >= 0
C_0077_cost_0016: cost_0077 >= 0
C_0077_cost_0017: cost_0077 >= 0
C_0077_cost_0018: cost_0077 >= 0
C_0077_cost_0019: cost_0077 >= 0
C_0077_cost_0020: cost_0077 >= 0
C_0077_cost_0021: cost_0077 >= 0
C_0077_cost_0022: cost_0077 >= 0
C_0077_cost_0023: cost_0077 >= 0
C_0077_cost_0024: cost_0077 >= 0
C_0077_cost_0025: cost_0077 >= 0
C_0077_cost_0026: cost_0077 - 0.0106666652041 pi_0026_0000 >= 0
C_0077_cost_0027: cost_0077 >= 0
C_0077_cost_0028: cost_0077 >= 0
C_0077_cost_0029: cost_0077 - 0.426666385001 pi_0029_0000 >= 0
C_0077_cost_0030: cost_0077 >= 0
C_0077_cost_0031: cost_0077 >= 0
C_0077_cost_0032: cost_0077 >= 0
C_0077_cost_0033: cost_0077 >= 0
C_0077_cost_0034: cost_0077 >= 0
C_0077_cost_0035: cost_0077 >= 0
C_0077_cost_0036: cost_0077 >= 0
C_0077_linear_0000: - act_0000 + xi_0077_0000 = 32
C_0077_linear_0001: - act_0001 + xi_0077_0001 = 6
C_0077_linear_0002: - act_0002 + xi_0077_0002 = 931
C_0077_linear_0003: - act_0003 + xi_0077_0003 = 1
C_0077_linear_0004: - act_0004 + xi_0077_0004 = 1
C_0077_linear_0005: - act_0005 + xi_0077_0005 = 1
C_0077_linear_0006: - act_0006 + xi_0077_0006 = 0
C_0077_linear_0007: - act_0007 + xi_0077_0007 = 0
C_0077_linear_0008: - act_0008 + xi_0077_0008 = 1
C_0077_linear_0009: - act_0009 + xi_0077_0009 = 1
C_0077_linear_0010: - act_0010 + xi_0077_0010 = 0
C_0077_linear_0011: - act_0011 + xi_0077_0011 = 0
C_0077_linear_0012: - act_0012 + xi_0077_0012 = 0
C_0077_linear_0013: - act_0013 + xi_0077_0013 = 0
C_0077_linear_0014: - act_0014 + xi_0077_0014 = 1
C_0077_linear_0015: - act_0015 + xi_0077_0015 = 0
C_0077_linear_0016: - act_0016 + xi_0077_0016 = 0
C_0077_linear_0017: - act_0017 + xi_0077_0017 = 0
C_0077_linear_0018: - act_0018 + xi_0077_0018 = 0
C_0077_linear_0019: - act_0019 + xi_0077_0019 = 0
C_0077_linear_0020: - act_0020 + xi_0077_0020 = 0
C_0077_linear_0021: - act_0021 + xi_0077_0021 = 0
C_0077_linear_0022: - act_0022 + xi_0077_0022 = 0
C_0077_linear_0023: - act_0023 + xi_0077_0023 = 1
C_0077_linear_0024: - act_0024 + xi_0077_0024 = 0
C_0077_linear_0025: - act_0025 + xi_0077_0025 = 0
C_0077_linear_0026: - act_0026 + xi_0077_0026 = 0
C_0077_linear_0027: - act_0027 + xi_0077_0027 = 0
C_0077_linear_0028: - act_0028 + xi_0077_0028 = 1
C_0077_linear_0029: - act_0029 + xi_0077_0029 = 0
C_0077_linear_0030: - act_0030 + xi_0077_0030 = 0
C_0077_linear_0031: - act_0031 + xi_0077_0031 = 0
C_0077_linear_0032: - act_0032 + xi_0077_0032 = 1
C_0077_linear_0033: - act_0033 + xi_0077_0033 = 0
C_0077_linear_0034: - act_0034 + xi_0077_0034 = 0
C_0077_linear_0035: - act_0035 + xi_0077_0035 = 1
C_0077_linear_0036: - act_0036 + xi_0077_0036 = 0
C_0077_linear_0037: - act_0037 + xi_0077_0037 = 0
C_0077_linear_0038: - act_0038 + xi_0077_0038 = 0
C_0077_linear_0039: - act_0039 + xi_0077_0039 = 0
C_0077_loss_ge: - 10000 omg_0077 - 0.0111828930987 xi_0077_0000
 + 0.0316585861132 xi_0077_0001 + 0.000106039552982 xi_0077_0002
 + 0.2872356913 xi_0077_0003 + 0.013030358965 xi_0077_0004
 + 0.240120705533 xi_0077_0005 + 0.442580447937 xi_0077_0006
 - 0.375980671537 xi_0077_0007 + 0.392374151169 xi_0077_0008
 + 1.06701819784 xi_0077_0009 - 0.942756746323 xi_0077_0010
 + 0.412027349402 xi_0077_0011 + 0.570359951286 xi_0077_0012
 - 0.852905494999 xi_0077_0013 - 0.323418189169 xi_0077_0014
 + 0.252938924417 xi_0077_0015 - 0.0388599557068 xi_0077_0016
 - 0.020417849004 xi_0077_0017 - 0.119001175529 xi_0077_0018
 + 0.47399163059 xi_0077_0019 - 0.445604107063 xi_0077_0020
 - 0.0184582213876 xi_0077_0021 + 0.307589905785 xi_0077_0022
 + 0.444474821864 xi_0077_0023 - 0.187382383206 xi_0077_0024
 + 0.383302875585 xi_0077_0025 - 0.750161596334 xi_0077_0026
 - 1.33170117681 xi_0077_0027 + 0.0190658885385 xi_0077_0028
 - 0.745784276999 xi_0077_0029 - 0.516231038044 xi_0077_0030
 - 0.409255825925 xi_0077_0031 - 0.0994375517393 xi_0077_0032
 - 0.734256048841 xi_0077_0033 - 0.253933375138 xi_0077_0034
 - 0.256674950149 xi_0077_0035 - 0.732341101218 xi_0077_0036
 - 0.86707443001 xi_0077_0037 - 0.319117177314 xi_0077_0038
 + 0.0697086420108 xi_0077_0039 >= -9998.75705057
C_0077_loss_le: - 10000 omg_0077 - 0.0111828930987 xi_0077_0000
 + 0.0316585861132 xi_0077_0001 + 0.000106039552982 xi_0077_0002
 + 0.2872356913 xi_0077_0003 + 0.013030358965 xi_0077_0004
 + 0.240120705533 xi_0077_0005 + 0.442580447937 xi_0077_0006
 - 0.375980671537 xi_0077_0007 + 0.392374151169 xi_0077_0008
 + 1.06701819784 xi_0077_0009 - 0.942756746323 xi_0077_0010
 + 0.412027349402 xi_0077_0011 + 0.570359951286 xi_0077_0012
 - 0.852905494999 xi_0077_0013 - 0.323418189169 xi_0077_0014
 + 0.252938924417 xi_0077_0015 - 0.0388599557068 xi_0077_0016
 - 0.020417849004 xi_0077_0017 - 0.119001175529 xi_0077_0018
 + 0.47399163059 xi_0077_0019 - 0.445604107063 xi_0077_0020
 - 0.0184582213876 xi_0077_0021 + 0.307589905785 xi_0077_0022
 + 0.444474821864 xi_0077_0023 - 0.187382383206 xi_0077_0024
 + 0.383302875585 xi_0077_0025 - 0.750161596334 xi_0077_0026
 - 1.33170117681 xi_0077_0027 + 0.0190658885385 xi_0077_0028
 - 0.745784276999 xi_0077_0029 - 0.516231038044 xi_0077_0030
 - 0.409255825925 xi_0077_0031 - 0.0994375517393 xi_0077_0032
 - 0.734256048841 xi_0077_0033 - 0.253933375138 xi_0077_0034
 - 0.256674950149 xi_0077_0035 - 0.732341101218 xi_0077_0036
 - 0.86707443001 xi_0077_0037 - 0.319117177314 xi_0077_0038
 + 0.0697086420108 xi_0077_0039 <= 1.24294941651
C_0078_cost_0001: cost_0078 - 0.0246929068628 pi_0001_0000
 - 0.0123216428276 pi_0001_0001 >= 0
C_0078_cost_0002: cost_0078 - 0.00587137187046 pi_0002_0000
 - 0.00564456712252 pi_0002_0001 - 0.00541784069145 pi_0002_0002
 - 0.0051911926162 pi_0002_0003 - 0.00496462293556 pi_0002_0004
 - 0.00473813168812 pi_0002_0005 - 0.00451171891229 pi_0002_0006
 - 0.00428538464631 pi_0002_0007 - 0.00405912892823 pi_0002_0008
 - 0.00383295179592 pi_0002_0009 - 0.00360685328707 pi_0002_0010
 - 0.00338083343921 pi_0002_0011 - 0.00315489228965 pi_0002_0012
 - 0.00292902987555 pi_0002_0013 - 0.0027032462339 pi_0002_0014
 - 0.00247754140147 pi_0002_0015 - 0.0022519154149 pi_0002_0016
 - 0.00202636831062 pi_0002_0017 - 0.0018009001249 pi_0002_0018
 - 0.00157551089381 pi_0002_0019 - 0.00135020065327 pi_0002_0020
 - 0.001124969439 pi_0002_0021 - 0.000899817286561 pi_0002_0022
 - 0.000674744231329 pi_0002_0023 - 0.000449750308503 pi_0002_0024
 - 0.000224835553111 pi_0002_0025 >= 0
C_0078_cost_0003: cost_0078 >= 0
C_0078_cost_0004: cost_0078 >= 0
C_0078_cost_0005: cost_0078 >= 0
C_0078_cost_0006: cost_0078 >= 0
C_0078_cost_0007: cost_0078 >= 0
C_0078_cost_0008: cost_0078 >= 0
C_0078_cost_0009: cost_0078 >= 0
C_0078_cost_0010: cost_0078 >= 0
C_0078_cost_0011: cost_0078 >= 0
C_0078_cost_0012: cost_0078 >= 0
C_0078_cost_0013: cost_0078 >= 0
C_0078_cost_0014: cost_0078 >= 0
C_0078_cost_0015: cost_0078 >= 0
C_0078_cost_0016: cost_0078 >= 0
C_0078_cost_0017: cost_0078 >= 0
C_0078_cost_0018: cost_0078 >= 0
C_0078_cost_0019: cost_0078 >= 0
C_0078_cost_0020: cost_0078 >= 0
C_0078_cost_0021: cost_0078 >= 0
C_0078_cost_0022: cost_0078 >= 0
C_0078_cost_0023: cost_0078 >= 0
C_0078_cost_0024: cost_0078 >= 0
C_0078_cost_0025: cost_0078 >= 0
C_0078_cost_0026: cost_0078 - 0.0106666652041 pi_0026_0000 >= 0
C_0078_cost_0027: cost_0078 >= 0
C_0078_cost_0028: cost_0078 >= 0
C_0078_cost_0029: cost_0078 - 0.426666385001 pi_0029_0000 >= 0
C_0078_cost_0030: cost_0078 >= 0
C_0078_cost_0031: cost_0078 >= 0
C_0078_cost_0032: cost_0078 >= 0
C_0078_cost_0033: cost_0078 >= 0
C_0078_cost_0034: cost_0078 >= 0
C_0078_cost_0035: cost_0078 >= 0
C_0078_cost_0036: cost_0078 >= 0
C_0078_linear_0000: - act_0000 + xi_0078_0000 = 31
C_0078_linear_0001: - act_0001 + xi_0078_0001 = 36
C_0078_linear_0002: - act_0002 + xi_0078_0002 = 2302
C_0078_linear_0003: - act_0003 + xi_0078_0003 = 4
C_0078_linear_0004: - act_0004 + xi_0078_0004 = 4
C_0078_linear_0005: - act_0005 + xi_0078_0005 = 1
C_0078_linear_0006: - act_0006 + xi_0078_0006 = 0
C_0078_linear_0007: - act_0007 + xi_0078_0007 = 0
C_0078_linear_0008: - act_0008 + xi_0078_0008 = 1
C_0078_linear_0009: - act_0009 + xi_0078_0009 = 0
C_0078_linear_0010: - act_0010 + xi_0078_0010 = 0
C_0078_linear_0011: - act_0011 + xi_0078_0011 = 0
C_0078_linear_0012: - act_0012 + xi_0078_0012 = 0
C_0078_linear_0013: - act_0013 + xi_0078_0013 = 0
C_0078_linear_0014: - act_0014 + xi_0078_0014 = 0
C_0078_linear_0015: - act_0015 + xi_0078_0015 = 1
C_0078_linear_0016: - act_0016 + xi_0078_0016 = 0
C_0078_linear_0017: - act_0017 + xi_0078_0017 = 1
C_0078_linear_0018: - act_0018 + xi_0078_0018 = 0
C_0078_linear_0019: - act_0019 + xi_0078_0019 = 0
C_0078_linear_0020: - act_0020 + xi_0078_0020 = 1
C_0078_linear_0021: - act_0021 + xi_0078_0021 = 0
C_0078_linear_0022: - act_0022 + xi_0078_0022 = 0
C_0078_linear_0023: - act_0023 + xi_0078_0023 = 0
C_0078_linear_0024: - act_0024 + xi_0078_0024 = 0
C_0078_linear_0025: - act_0025 + xi_0078_0025 = 0
C_0078_linear_0026: - act_0026 + xi_0078_0026 = 0
C_0078_linear_0027: - act_0027 + xi_0078_0027 = 0
C_0078_linear_0028: - act_0028 + xi_0078_0028 = 0
C_0078_linear_0029: - act_0029 + xi_0078_0029 = 0
C_0078_linear_0030: - act_0030 + xi_0078_0030 = 1
C_0078_linear_0031: - act_0031 + xi_0078_0031 = 1
C_0078_linear_0032: - act_0032 + xi_0078_0032 = 0
C_0078_linear_0033: - act_0033 + xi_0078_0033 = 0
C_0078_linear_0034: - act_0034 + xi_0078_0034 = 1
C_0078_linear_0035: - act_0035 + xi_0078_0035 = 0
C_0078_linear_0036: - act_0036 + xi_0078_0036 = 0
C_0078_linear_0037: - act_0037 + xi_0078_0037 = 0
C_0078_linear_0038: - act_0038 + xi_0078_0038 = 0
C_0078_linear_0039: - act_0039 + xi_0078_0039 = 1
C_0078_loss_ge: - 10000 omg_0078 - 0.0111828930987 xi_0078_0000
 + 0.0316585861132 xi_0078_0001 + 0.000106039552982 xi_0078_0002
 + 0.2872356913 xi_0078_0003 + 0.013030358965 xi_0078_0004
 + 0.240120705533 xi_0078_0005 + 0.442580447937 xi_0078_0006
 - 0.375980671537 xi_0078_0007 + 0.392374151169 xi_0078_0008
 + 1.06701819784 xi_0078_0009 - 0.942756746323 xi_0078_0010
 + 0.412027349402 xi_0078_0011 + 0.570359951286 xi_0078_0012
 - 0.852905494999 xi_0078_0013 - 0.323418189169 xi_0078_0014
 + 0.252938924417 xi_0078_0015 - 0.0388599557068 xi_0078_0016
 - 0.020417849004 xi_0078_0017 - 0.119001175529 xi_0078_0018
 + 0.47399163059 xi_0078_0019 - 0.445604107063 xi_0078_0020
 - 0.0184582213876 xi_0078_0021 + 0.307589905785 xi_0078_0022
 + 0.444474821864 xi_0078_0023 - 0.187382383206 xi_0078_0024
 + 0.383302875585 xi_0078_0025 - 0.750161596334 xi_0078_0026
 - 1.33170117681 xi_0078_0027 + 0.0190658885385 xi_0078_0028
 - 0.745784276999 xi_0078_0029 - 0.516231038044 xi_0078_0030
 - 0.409255825925 xi_0078_0031 - 0.0994375517393 xi_0078_0032
 - 0.734256048841 xi_0078_0033 - 0.253933375138 xi_0078_0034
 - 0.256674950149 xi_0078_0035 - 0.732341101218 xi_0078_0036
 - 0.86707443001 xi_0078_0037 - 0.319117177314 xi_0078_0038
 + 0.0697086420108 xi_0078_0039 >= -9998.75705057
C_0078_loss_le: - 10000 omg_0078 - 0.0111828930987 xi_0078_0000
 + 0.0316585861132 xi_0078_0001 + 0.000106039552982 xi_0078_0002
 + 0.2872356913 xi_0078_0003 + 0.013030358965 xi_0078_0004
 + 0.240120705533 xi_0078_0005 + 0.442580447937 xi_0078_0006
 - 0.375980671537 xi_0078_0007 + 0.392374151169 xi_0078_0008
 + 1.06701819784 xi_0078_0009 - 0.942756746323 xi_0078_0010
 + 0.412027349402 xi_0078_0011 + 0.570359951286 xi_0078_0012
 - 0.852905494999 xi_0078_0013 - 0.323418189169 xi_0078_0014
 + 0.252938924417 xi_0078_0015 - 0.0388599557068 xi_0078_0016
 - 0.020417849004 xi_0078_0017 - 0.119001175529 xi_0078_0018
 + 0.47399163059 xi_0078_0019 - 0.445604107063 xi_0078_0020
 - 0.0184582213876 xi_0078_0021 + 0.307589905785 xi_0078_0022
 + 0.444474821864 xi_0078_0023 - 0.187382383206 xi_0078_0024
 + 0.383302875585 xi_0078_0025 - 0.750161596334 xi_0078_0026
 - 1.33170117681 xi_0078_0027 + 0.0190658885385 xi_0078_0028
 - 0.745784276999 xi_0078_0029 - 0.516231038044 xi_0078_0030
 - 0.409255825925 xi_0078_0031 - 0.0994375517393 xi_0078_0032
 - 0.734256048841 xi_0078_0033 - 0.253933375138 xi_0078_0034
 - 0.256674950149 xi_0078_0035 - 0.732341101218 xi_0078_0036
 - 0.86707443001 xi_0078_0037 - 0.319117177314 xi_0078_0038
 + 0.0697086420108 xi_0078_0039 <= 1.24294941651
C_0079_cost_0001: cost_0079 - 0.0246929068628 pi_0001_0000
 - 0.0123216428276 pi_0001_0001 >= 0
C_0079_cost_0002: cost_0079 - 0.00508328682857 pi_0002_0000
 - 0.00488674140334 pi_0002_0001 - 0.0046902787965 pi_0002_0002
 - 0.0044938990001 pi_0002_0003 - 0.00429760200613 pi_0002_0004
 - 0.00410138780649 pi_0002_0005 - 0.003905256393 pi_0002_0006
 - 0.00370920775744 pi_0002_0007 - 0.00351324189148 pi_0002_0008
 - 0.00331735878673 pi_0002_0009 - 0.00312155843475 pi_0002_0010
 - 0.002925840827 pi_0002_0011 - 0.00273020595488 pi_0002_0012
 - 0.0025346538097 pi_0002_0013 - 0.00233918438274 pi_0002_0014
 - 0.00214379766517 pi_0002_0015 - 0.0019484936481 pi_0002_0016
 - 0.00175327232258 pi_0002_0017 - 0.00155813367958 pi_0002_0018
 - 0.00136307771 pi_0002_0019 - 0.00116810440468 pi_0002_0020
 - 0.00097321375437 pi_0002_0021 - 0.000778405749777 pi_0002_0022
 - 0.000583680381522 pi_0002_0023 - 0.00038903764016 pi_0002_0024
 - 0.000194477516179 pi_0002_0025 >= 0
C_0079_cost_0003: cost_0079 >= 0
C_0079_cost_0004: cost_0079 >= 0
C_0079_cost_0005: cost_0079 >= 0
C_0079_cost_0006: cost_0079 >= 0
C_0079_cost_0007: cost_0079 >= 0
C_0079_cost_0008: cost_0079 >= 0
C_0079_cost_0009: cost_0079 >= 0
C_0079_cost_0010: cost_0079 >= 0
C_0079_cost_0011: cost_0079 >= 0
C_0079_cost_0012: cost_0079 >= 0
C_0079_cost_0013: cost_0079 >= 0
C_0079_cost_0014: cost_0079 >= 0
C_0079_cost_0015: cost_0079 >= 0
C_0079_cost_0016: cost_0079 >= 0
C_0079_cost_0017: cost_0079 >= 0
C_0079_cost_0018: cost_0079 >= 0
C_0079_cost_0019: cost_0079 >= 0
C_0079_cost_0020: cost_0079 >= 0
C_0079_cost_0021: cost_0079 >= 0
C_0079_cost_0022: cost_0079 >= 0
C_0079_cost_0023: cost_0079 >= 0
C_0079_cost_0024: cost_0079 >= 0
C_0079_cost_0025: cost_0079 >= 0
C_0079_cost_0026: cost_0079 - 0.0106666652041 pi_0026_0000 >= 0
C_0079_cost_0027: cost_0079 >= 0
C_0079_cost_0028: cost_0079 >= 0
C_0079_cost_0029: cost_0079 - 0.426666385001 pi_0029_0000 >= 0
C_0079_cost_0030: cost_0079 >= 0
C_0079_cost_0031: cost_0079 >= 0
C_0079_cost_0032: cost_0079 >= 0
C_0079_cost_0033: cost_0079 >= 0
C_0079_cost_0034: cost_0079 >= 0
C_0079_cost_0035: cost_0079 >= 0
C_0079_cost_0036: cost_0079 >= 0
C_0079_linear_0000: - act_0000 + xi_0079_0000 = 50
C_0079_linear_0001: - act_0001 + xi_0079_0001 = 36
C_0079_linear_0002: - act_0002 + xi_0079_0002 = 2671
C_0079_linear_0003: - act_0003 + xi_0079_0003 = 4
C_0079_linear_0004: - act_0004 + xi_0079_0004 = 4
C_0079_linear_0005: - act_0005 + xi_0079_0005 = 1
C_0079_linear_0006: - act_0006 + xi_0079_0006 = 0
C_0079_linear_0007: - act_0007 + xi_0079_0007 = 0
C_0079_linear_0008: - act_0008 + xi_0079_0008 = 1
C_0079_linear_0009: - act_0009 + xi_0079_0009 = 0
C_0079_linear_0010: - act_0010 + xi_0079_0010 = 0
C_0079_linear_0011: - act_0011 + xi_0079_0011 = 0
C_0079_linear_0012: - act_0012 + xi_0079_0012 = 1
C_0079_linear_0013: - act_0013 + xi_0079_0013 = 0
C_0079_linear_0014: - act_0014 + xi_0079_0014 = 0
C_0079_linear_0015: - act_0015 + xi_0079_0015 = 0
C_0079_linear_0016: - act_0016 + xi_0079_0016 = 0
C_0079_linear_0017: - act_0017 + xi_0079_0017 = 1
C_0079_linear_0018: - act_0018 + xi_0079_0018 = 0
C_0079_linear_0019: - act_0019 + xi_0079_0019 = 0
C_0079_linear_0020: - act_0020 + xi_0079_0020 = 1
C_0079_linear_0021: - act_0021 + xi_0079_0021 = 0
C_0079_linear_0022: - act_0022 + xi_0079_0022 = 0
C_0079_linear_0023: - act_0023 + xi_0079_0023 = 0
C_0079_linear_0024: - act_0024 + xi_0079_0024 = 0
C_0079_linear_0025: - act_0025 + xi_0079_0025 = 0
C_0079_linear_0026: - act_0026 + xi_0079_0026 = 0
C_0079_linear_0027: - act_0027 + xi_0079_0027 = 0
C_0079_linear_0028: - act_0028 + xi_0079_0028 = 0
C_0079_linear_0029: - act_0029 + xi_0079_0029 = 0
C_0079_linear_0030: - act_0030 + xi_0079_0030 = 1
C_0079_linear_0031: - act_0031 + xi_0079_0031 = 0
C_0079_linear_0032: - act_0032 + xi_0079_0032 = 1
C_0079_linear_0033: - act_0033 + xi_0079_0033 = 0
C_0079_linear_0034: - act_0034 + xi_0079_0034 = 0
C_0079_linear_0035: - act_0035 + xi_0079_0035 = 1
C_0079_linear_0036: - act_0036 + xi_0079_0036 = 0
C_0079_linear_0037: - act_0037 + xi_0079_0037 = 0
C_0079_linear_0038: - act_0038 + xi_0079_0038 = 0
C_0079_linear_0039: - act_0039 + xi_0079_0039 = 0
C_0079_loss_ge: - 10000 omg_0079 - 0.0111828930987 xi_0079_0000
 + 0.0316585861132 xi_0079_0001 + 0.000106039552982 xi_0079_0002
 + 0.2872356913 xi_0079_0003 + 0.013030358965 xi_0079_0004
 + 0.240120705533 xi_0079_0005 + 0.442580447937 xi_0079_0006
 - 0.375980671537 xi_0079_0007 + 0.392374151169 xi_0079_0008
 + 1.06701819784 xi_0079_0009 - 0.942756746323 xi_0079_0010
 + 0.412027349402 xi_0079_0011 + 0.570359951286 xi_0079_0012
 - 0.852905494999 xi_0079_0013 - 0.323418189169 xi_0079_0014
 + 0.252938924417 xi_0079_0015 - 0.0388599557068 xi_0079_0016
 - 0.020417849004 xi_0079_0017 - 0.119001175529 xi_0079_0018
 + 0.47399163059 xi_0079_0019 - 0.445604107063 xi_0079_0020
 - 0.0184582213876 xi_0079_0021 + 0.307589905785 xi_0079_0022
 + 0.444474821864 xi_0079_0023 - 0.187382383206 xi_0079_0024
 + 0.383302875585 xi_0079_0025 - 0.750161596334 xi_0079_0026
 - 1.33170117681 xi_0079_0027 + 0.0190658885385 xi_0079_0028
 - 0.745784276999 xi_0079_0029 - 0.516231038044 xi_0079_0030
 - 0.409255825925 xi_0079_0031 - 0.0994375517393 xi_0079_0032
 - 0.734256048841 xi_0079_0033 - 0.253933375138 xi_0079_0034
 - 0.256674950149 xi_0079_0035 - 0.732341101218 xi_0079_0036
 - 0.86707443001 xi_0079_0037 - 0.319117177314 xi_0079_0038
 + 0.0697086420108 xi_0079_0039 >= -9998.75705057
C_0079_loss_le: - 10000 omg_0079 - 0.0111828930987 xi_0079_0000
 + 0.0316585861132 xi_0079_0001 + 0.000106039552982 xi_0079_0002
 + 0.2872356913 xi_0079_0003 + 0.013030358965 xi_0079_0004
 + 0.240120705533 xi_0079_0005 + 0.442580447937 xi_0079_0006
 - 0.375980671537 xi_0079_0007 + 0.392374151169 xi_0079_0008
 + 1.06701819784 xi_0079_0009 - 0.942756746323 xi_0079_0010
 + 0.412027349402 xi_0079_0011 + 0.570359951286 xi_0079_0012
 - 0.852905494999 xi_0079_0013 - 0.323418189169 xi_0079_0014
 + 0.252938924417 xi_0079_0015 - 0.0388599557068 xi_0079_0016
 - 0.020417849004 xi_0079_0017 - 0.119001175529 xi_0079_0018
 + 0.47399163059 xi_0079_0019 - 0.445604107063 xi_0079_0020
 - 0.0184582213876 xi_0079_0021 + 0.307589905785 xi_0079_0022
 + 0.444474821864 xi_0079_0023 - 0.187382383206 xi_0079_0024
 + 0.383302875585 xi_0079_0025 - 0.750161596334 xi_0079_0026
 - 1.33170117681 xi_0079_0027 + 0.0190658885385 xi_0079_0028
 - 0.745784276999 xi_0079_0029 - 0.516231038044 xi_0079_0030
 - 0.409255825925 xi_0079_0031 - 0.0994375517393 xi_0079_0032
 - 0.734256048841 xi_0079_0033 - 0.253933375138 xi_0079_0034
 - 0.256674950149 xi_0079_0035 - 0.732341101218 xi_0079_0036
 - 0.86707443001 xi_0079_0037 - 0.319117177314 xi_0079_0038
 + 0.0697086420108 xi_0079_0039 <= 1.24294941651
C_0080_cost_0001: cost_0080 - 0.0619927172632 pi_0001_0000
 - 0.0312922164248 pi_0001_0001 >= 0
C_0080_cost_0002: cost_0080 - 0.00674876525244 pi_0002_0000
 - 0.00648910500183 pi_0002_0001 - 0.00622945069464 pi_0002_0002
 - 0.0059698025125 pi_0002_0003 - 0.00571016063689 pi_0002_0004
 - 0.00545052524908 pi_0002_0005 - 0.0051908965302 pi_0002_0006
 - 0.00493127466119 pi_0002_0007 - 0.00467165982282 pi_0002_0008
 - 0.0044120521957 pi_0002_0009 - 0.00415245196023 pi_0002_0010
 - 0.00389285929667 pi_0002_0011 - 0.0036332743851 pi_0002_0012
 - 0.0033736974054 pi_0002_0013 - 0.0031141285373 pi_0002_0014
 - 0.00285456796033 pi_0002_0015 - 0.00259501585387 pi_0002_0016
 - 0.0023354723971 pi_0002_0017 - 0.00207593776904 pi_0002_0018
 - 0.00181641214851 pi_0002_0019 - 0.00155689571417 pi_0002_0020
 - 0.00129738864449 pi_0002_0021 - 0.00103789111777 pi_0002_0022
 - 0.000778403312112 pi_0002_0023 - 0.000518925405461 pi_0002_0024
 - 0.000259457575567 pi_0002_0025 >= 0
C_0080_cost_0003: cost_0080 >= 0
C_0080_cost_0004: cost_0080 >= 0
C_0080_cost_0005: cost_0080 >= 0
C_0080_cost_0006: cost_0080 >= 0
C_0080_cost_0007: cost_0080 >= 0
C_0080_cost_0008: cost_0080 >= 0
C_0080_cost_0009: cost_0080 >= 0
C_0080_cost_0010: cost_0080 >= 0
C_0080_cost_0011: cost_0080 >= 0
C_0080_cost_0012: cost_0080 >= 0
C_0080_cost_0013: cost_0080 >= 0
C_0080_cost_0014: cost_0080 >= 0
C_0080_cost_0015: cost_0080 >= 0
C_0080_cost_0016: cost_0080 >= 0
C_0080_cost_0017: cost_0080 >= 0
C_0080_cost_0018: cost_0080 >= 0
C_0080_cost_0019: cost_0080 >= 0
C_0080_cost_0020: cost_0080 >= 0
C_0080_cost_0021: cost_0080 >= 0
C_0080_cost_0022: cost_0080 >= 0
C_0080_cost_0023: cost_0080 >= 0
C_0080_cost_0024: cost_0080 >= 0
C_0080_cost_0025: cost_0080 >= 0
C_0080_cost_0026: cost_0080 - 0.0106666652041 pi_0026_0000 >= 0
C_0080_cost_0027: cost_0080 >= 0
C_0080_cost_0028: cost_0080 >= 0
C_0080_cost_0029: cost_0080 - 0.426666385001 pi_0029_0000 >= 0
C_0080_cost_0030: cost_0080 >= 0
C_0080_cost_0031: cost_0080 >= 0
C_0080_cost_0032: cost_0080 >= 0
C_0080_cost_0033: cost_0080 >= 0
C_0080_cost_0034: cost_0080 >= 0
C_0080_cost_0035: cost_0080 >= 0
C_0080_cost_0036: cost_0080 >= 0
C_0080_linear_0000: - act_0000 + xi_0080_0000 = 40
C_0080_linear_0001: - act_0001 + xi_0080_0001 = 21
C_0080_linear_0002: - act_0002 + xi_0080_0002 = 1647
C_0080_linear_0003: - act_0003 + xi_0080_0003 = 4
C_0080_linear_0004: - act_0004 + xi_0080_0004 = 2
C_0080_linear_0005: - act_0005 + xi_0080_0005 = 2
C_0080_linear_0006: - act_0006 + xi_0080_0006 = 1
C_0080_linear_0007: - act_0007 + xi_0080_0007 = 0
C_0080_linear_0008: - act_0008 + xi_0080_0008 = 1
C_0080_linear_0009: - act_0009 + xi_0080_0009 = 1
C_0080_linear_0010: - act_0010 + xi_0080_0010 = 0
C_0080_linear_0011: - act_0011 + xi_0080_0011 = 0
C_0080_linear_0012: - act_0012 + xi_0080_0012 = 0
C_0080_linear_0013: - act_0013 + xi_0080_0013 = 0
C_0080_linear_0014: - act_0014 + xi_0080_0014 = 1
C_0080_linear_0015: - act_0015 + xi_0080_0015 = 0
C_0080_linear_0016: - act_0016 + xi_0080_0016 = 0
C_0080_linear_0017: - act_0017 + xi_0080_0017 = 0
C_0080_linear_0018: - act_0018 + xi_0080_0018 = 0
C_0080_linear_0019: - act_0019 + xi_0080_0019 = 0
C_0080_linear_0020: - act_0020 + xi_0080_0020 = 0
C_0080_linear_0021: - act_0021 + xi_0080_0021 = 0
C_0080_linear_0022: - act_0022 + xi_0080_0022 = 0
C_0080_linear_0023: - act_0023 + xi_0080_0023 = 1
C_0080_linear_0024: - act_0024 + xi_0080_0024 = 0
C_0080_linear_0025: - act_0025 + xi_0080_0025 = 0
C_0080_linear_0026: - act_0026 + xi_0080_0026 = 0
C_0080_linear_0027: - act_0027 + xi_0080_0027 = 0
C_0080_linear_0028: - act_0028 + xi_0080_0028 = 0
C_0080_linear_0029: - act_0029 + xi_0080_0029 = 0
C_0080_linear_0030: - act_0030 + xi_0080_0030 = 1
C_0080_linear_0031: - act_0031 + xi_0080_0031 = 1
C_0080_linear_0032: - act_0032 + xi_0080_0032 = 0
C_0080_linear_0033: - act_0033 + xi_0080_0033 = 0
C_0080_linear_0034: - act_0034 + xi_0080_0034 = 1
C_0080_linear_0035: - act_0035 + xi_0080_0035 = 0
C_0080_linear_0036: - act_0036 + xi_0080_0036 = 0
C_0080_linear_0037: - act_0037 + xi_0080_0037 = 0
C_0080_linear_0038: - act_0038 + xi_0080_0038 = 1
C_0080_linear_0039: - act_0039 + xi_0080_0039 = 1
C_0080_loss_ge: - 10000 omg_0080 - 0.0111828930987 xi_0080_0000
 + 0.0316585861132 xi_0080_0001 + 0.000106039552982 xi_0080_0002
 + 0.2872356913 xi_0080_0003 + 0.013030358965 xi_0080_0004
 + 0.240120705533 xi_0080_0005 + 0.442580447937 xi_0080_0006
 - 0.375980671537 xi_0080_0007 + 0.392374151169 xi_0080_0008
 + 1.06701819784 xi_0080_0009 - 0.942756746323 xi_0080_0010
 + 0.412027349402 xi_0080_0011 + 0.570359951286 xi_0080_0012
 - 0.852905494999 xi_0080_0013 - 0.323418189169 xi_0080_0014
 + 0.252938924417 xi_0080_0015 - 0.0388599557068 xi_0080_0016
 - 0.020417849004 xi_0080_0017 - 0.119001175529 xi_0080_0018
 + 0.47399163059 xi_0080_0019 - 0.445604107063 xi_0080_0020
 - 0.0184582213876 xi_0080_0021 + 0.307589905785 xi_0080_0022
 + 0.444474821864 xi_0080_0023 - 0.187382383206 xi_0080_0024
 + 0.383302875585 xi_0080_0025 - 0.750161596334 xi_0080_0026
 - 1.33170117681 xi_0080_0027 + 0.0190658885385 xi_0080_0028
 - 0.745784276999 xi_0080_0029 - 0.516231038044 xi_0080_0030
 - 0.409255825925 xi_0080_0031 - 0.0994375517393 xi_0080_0032
 - 0.734256048841 xi_0080_0033 - 0.253933375138 xi_0080_0034
 - 0.256674950149 xi_0080_0035 - 0.732341101218 xi_0080_0036
 - 0.86707443001 xi_0080_0037 - 0.319117177314 xi_0080_0038
 + 0.0697086420108 xi_0080_0039 >= -9998.75705057
C_0080_loss_le: - 10000 omg_0080 - 0.0111828930987 xi_0080_0000
 + 0.0316585861132 xi_0080_0001 + 0.000106039552982 xi_0080_0002
 + 0.2872356913 xi_0080_0003 + 0.013030358965 xi_0080_0004
 + 0.240120705533 xi_0080_0005 + 0.442580447937 xi_0080_0006
 - 0.375980671537 xi_0080_0007 + 0.392374151169 xi_0080_0008
 + 1.06701819784 xi_0080_0009 - 0.942756746323 xi_0080_0010
 + 0.412027349402 xi_0080_0011 + 0.570359951286 xi_0080_0012
 - 0.852905494999 xi_0080_0013 - 0.323418189169 xi_0080_0014
 + 0.252938924417 xi_0080_0015 - 0.0388599557068 xi_0080_0016
 - 0.020417849004 xi_0080_0017 - 0.119001175529 xi_0080_0018
 + 0.47399163059 xi_0080_0019 - 0.445604107063 xi_0080_0020
 - 0.0184582213876 xi_0080_0021 + 0.307589905785 xi_0080_0022
 + 0.444474821864 xi_0080_0023 - 0.187382383206 xi_0080_0024
 + 0.383302875585 xi_0080_0025 - 0.750161596334 xi_0080_0026
 - 1.33170117681 xi_0080_0027 + 0.0190658885385 xi_0080_0028
 - 0.745784276999 xi_0080_0029 - 0.516231038044 xi_0080_0030
 - 0.409255825925 xi_0080_0031 - 0.0994375517393 xi_0080_0032
 - 0.734256048841 xi_0080_0033 - 0.253933375138 xi_0080_0034
 - 0.256674950149 xi_0080_0035 - 0.732341101218 xi_0080_0036
 - 0.86707443001 xi_0080_0037 - 0.319117177314 xi_0080_0038
 + 0.0697086420108 xi_0080_0039 <= 1.24294941651
C_0081_cost_0001: cost_0081 - 0.0124000182326 pi_0001_0000
 - 0.00617282715365 pi_0001_0001 >= 0
C_0081_cost_0002: cost_0081 - 0.00221225691773 pi_0002_0000
 - 0.00212653514267 pi_0002_0001 - 0.00204086436781 pi_0002_0002
 - 0.00195524456794 pi_0002_0003 - 0.00186967571783 pi_0002_0004
 - 0.00178415779224 pi_0002_0005 - 0.00169869076592 pi_0002_0006
 - 0.00161327461356 pi_0002_0007 - 0.00152790930988 pi_0002_0008
 - 0.00144259482954 pi_0002_0009 - 0.00135733114721 pi_0002_0010
 - 0.00127211823751 pi_0002_0011 - 0.00118695607507 pi_0002_0012
 - 0.00110184463447 pi_0002_0013 - 0.00101678389031 pi_0002_0014
 - 0.000931773817126 pi_0002_0015 - 0.000846814389462 pi_0002_0016
 - 0.000761905581834 pi_0002_0017 - 0.000677047368737 pi_0002_0018
 - 0.000592239724648 pi_0002_0019 - 0.000507482624022 pi_0002_0020
 - 0.000422776041296 pi_0002_0021 - 0.000338119950885 pi_0002_0022
 - 0.000253514327184 pi_0002_0023 - 0.000168959144569 pi_0002_0024
 - 8.44543773963e-05 pi_0002_0025 >= 0
C_0081_cost_0003: cost_0081 >= 0
C_0081_cost_0004: cost_0081 >= 0
C_0081_cost_0005: cost_0081 >= 0
C_0081_cost_0006: cost_0081 >= 0
C_0081_cost_0007: cost_0081 >= 0
C_0081_cost_0008: cost_0081 >= 0
C_0081_cost_0009: cost_0081 >= 0
C_0081_cost_0010: cost_0081 >= 0
C_0081_cost_0011: cost_0081 >= 0
C_0081_cost_0012: cost_0081 >= 0
C_0081_cost_0013: cost_0081 >= 0
C_0081_cost_0014: cost_0081 >= 0
C_0081_cost_0015: cost_0081 >= 0
C_0081_cost_0016: cost_0081 >= 0
C_0081_cost_0017: cost_0081 >= 0
C_0081_cost_0018: cost_0081 >= 0
C_0081_cost_0019: cost_0081 >= 0
C_0081_cost_0020: cost_0081 >= 0
C_0081_cost_0021: cost_0081 >= 0
C_0081_cost_0022: cost_0081 >= 0
C_0081_cost_0023: cost_0081 >= 0
C_0081_cost_0024: cost_0081 >= 0
C_0081_cost_0025: cost_0081 >= 0
C_0081_cost_0026: cost_0081 - 0.0106666652041 pi_0026_0000 >= 0
C_0081_cost_0027: cost_0081 >= 0
C_0081_cost_0028: cost_0081 >= 0
C_0081_cost_0029: cost_0081 - 0.426666385001 pi_0029_0000 >= 0
C_0081_cost_0030: cost_0081 >= 0
C_0081_cost_0031: cost_0081 >= 0
C_0081_cost_0032: cost_0081 >= 0
C_0081_cost_0033: cost_0081 >= 0
C_0081_cost_0034: cost_0081 >= 0
C_0081_cost_0035: cost_0081 >= 0
C_0081_cost_0036: cost_0081 >= 0
C_0081_linear_0000: - act_0000 + xi_0081_0000 = 24
C_0081_linear_0001: - act_0001 + xi_0081_0001 = 48
C_0081_linear_0002: - act_0002 + xi_0081_0002 = 4308
C_0081_linear_0003: - act_0003 + xi_0081_0003 = 3
C_0081_linear_0004: - act_0004 + xi_0081_0004 = 4
C_0081_linear_0005: - act_0005 + xi_0081_0005 = 1
C_0081_linear_0006: - act_0006 + xi_0081_0006 = 0
C_0081_linear_0007: - act_0007 + xi_0081_0007 = 0
C_0081_linear_0008: - act_0008 + xi_0081_0008 = 1
C_0081_linear_0009: - act_0009 + xi_0081_0009 = 0
C_0081_linear_0010: - act_0010 + xi_0081_0010 = 0
C_0081_linear_0011: - act_0011 + xi_0081_0011 = 0
C_0081_linear_0012: - act_0012 + xi_0081_0012 = 0
C_0081_linear_0013: - act_0013 + xi_0081_0013 = 0
C_0081_linear_0014: - act_0014 + xi_0081_0014 = 0
C_0081_linear_0015: - act_0015 + xi_0081_0015 = 1
C_0081_linear_0016: - act_0016 + xi_0081_0016 = 0
C_0081_linear_0017: - act_0017 + xi_0081_0017 = 1
C_0081_linear_0018: - act_0018 + xi_0081_0018 = 1
C_0081_linear_0019: - act_0019 + xi_0081_0019 = 0
C_0081_linear_0020: - act_0020 + xi_0081_0020 = 0
C_0081_linear_0021: - act_0021 + xi_0081_0021 = 0
C_0081_linear_0022: - act_0022 + xi_0081_0022 = 0
C_0081_linear_0023: - act_0023 + xi_0081_0023 = 0
C_0081_linear_0024: - act_0024 + xi_0081_0024 = 0
C_0081_linear_0025: - act_0025 + xi_0081_0025 = 0
C_0081_linear_0026: - act_0026 + xi_0081_0026 = 0
C_0081_linear_0027: - act_0027 + xi_0081_0027 = 0
C_0081_linear_0028: - act_0028 + xi_0081_0028 = 1
C_0081_linear_0029: - act_0029 + xi_0081_0029 = 0
C_0081_linear_0030: - act_0030 + xi_0081_0030 = 0
C_0081_linear_0031: - act_0031 + xi_0081_0031 = 1
C_0081_linear_0032: - act_0032 + xi_0081_0032 = 0
C_0081_linear_0033: - act_0033 + xi_0081_0033 = 0
C_0081_linear_0034: - act_0034 + xi_0081_0034 = 1
C_0081_linear_0035: - act_0035 + xi_0081_0035 = 0
C_0081_linear_0036: - act_0036 + xi_0081_0036 = 0
C_0081_linear_0037: - act_0037 + xi_0081_0037 = 0
C_0081_linear_0038: - act_0038 + xi_0081_0038 = 0
C_0081_linear_0039: - act_0039 + xi_0081_0039 = 0
C_0081_loss_ge: - 10000 omg_0081 - 0.0111828930987 xi_0081_0000
 + 0.0316585861132 xi_0081_0001 + 0.000106039552982 xi_0081_0002
 + 0.2872356913 xi_0081_0003 + 0.013030358965 xi_0081_0004
 + 0.240120705533 xi_0081_0005 + 0.442580447937 xi_0081_0006
 - 0.375980671537 xi_0081_0007 + 0.392374151169 xi_0081_0008
 + 1.06701819784 xi_0081_0009 - 0.942756746323 xi_0081_0010
 + 0.412027349402 xi_0081_0011 + 0.570359951286 xi_0081_0012
 - 0.852905494999 xi_0081_0013 - 0.323418189169 xi_0081_0014
 + 0.252938924417 xi_0081_0015 - 0.0388599557068 xi_0081_0016
 - 0.020417849004 xi_0081_0017 - 0.119001175529 xi_0081_0018
 + 0.47399163059 xi_0081_0019 - 0.445604107063 xi_0081_0020
 - 0.0184582213876 xi_0081_0021 + 0.307589905785 xi_0081_0022
 + 0.444474821864 xi_0081_0023 - 0.187382383206 xi_0081_0024
 + 0.383302875585 xi_0081_0025 - 0.750161596334 xi_0081_0026
 - 1.33170117681 xi_0081_0027 + 0.0190658885385 xi_0081_0028
 - 0.745784276999 xi_0081_0029 - 0.516231038044 xi_0081_0030
 - 0.409255825925 xi_0081_0031 - 0.0994375517393 xi_0081_0032
 - 0.734256048841 xi_0081_0033 - 0.253933375138 xi_0081_0034
 - 0.256674950149 xi_0081_0035 - 0.732341101218 xi_0081_0036
 - 0.86707443001 xi_0081_0037 - 0.319117177314 xi_0081_0038
 + 0.0697086420108 xi_0081_0039 >= -9998.75705057
C_0081_loss_le: - 10000 omg_0081 - 0.0111828930987 xi_0081_0000
 + 0.0316585861132 xi_0081_0001 + 0.000106039552982 xi_0081_0002
 + 0.2872356913 xi_0081_0003 + 0.013030358965 xi_0081_0004
 + 0.240120705533 xi_0081_0005 + 0.442580447937 xi_0081_0006
 - 0.375980671537 xi_0081_0007 + 0.392374151169 xi_0081_0008
 + 1.06701819784 xi_0081_0009 - 0.942756746323 xi_0081_0010
 + 0.412027349402 xi_0081_0011 + 0.570359951286 xi_0081_0012
 - 0.852905494999 xi_0081_0013 - 0.323418189169 xi_0081_0014
 + 0.252938924417 xi_0081_0015 - 0.0388599557068 xi_0081_0016
 - 0.020417849004 xi_0081_0017 - 0.119001175529 xi_0081_0018
 + 0.47399163059 xi_0081_0019 - 0.445604107063 xi_0081_0020
 - 0.0184582213876 xi_0081_0021 + 0.307589905785 xi_0081_0022
 + 0.444474821864 xi_0081_0023 - 0.187382383206 xi_0081_0024
 + 0.383302875585 xi_0081_0025 - 0.750161596334 xi_0081_0026
 - 1.33170117681 xi_0081_0027 + 0.0190658885385 xi_0081_0028
 - 0.745784276999 xi_0081_0029 - 0.516231038044 xi_0081_0030
 - 0.409255825925 xi_0081_0031 - 0.0994375517393 xi_0081_0032
 - 0.734256048841 xi_0081_0033 - 0.253933375138 xi_0081_0034
 - 0.256674950149 xi_0081_0035 - 0.732341101218 xi_0081_0036
 - 0.86707443001 xi_0081_0037 - 0.319117177314 xi_0081_0038
 + 0.0697086420108 xi_0081_0039 <= 1.24294941651
C_0082_cost_0001: cost_0082 - 0.0275526923386 pi_0001_0000
 - 0.0126479830791 pi_0001_0001 >= 0
C_0082_cost_0002: cost_0082 - 0.0022494208392 pi_0002_0000
 - 0.00216226090566 pi_0002_0001 - 0.00207515267006 pi_0002_0002
 - 0.00198809610773 pi_0002_0003 - 0.001901091194 pi_0002_0004
 - 0.00181413790418 pi_0002_0005 - 0.00172723621355 pi_0002_0006
 - 0.00164038609738 pi_0002_0007 - 0.00155358753092 pi_0002_0008
 - 0.0014668404894 pi_0002_0009 - 0.00138014494803 pi_0002_0010
 - 0.00129350088198 pi_0002_0011 - 0.00120690826644 pi_0002_0012
 - 0.00112036707656 pi_0002_0013 - 0.00103387728745 pi_0002_0014
 - 0.000947438874244 pi_0002_0015 - 0.00086105181202 pi_0002_0016
 - 0.000774716075854 pi_0002_0017 - 0.000688431640796 pi_0002_0018
 - 0.00060219848188 pi_0002_0019 - 0.000516016574117 pi_0002_0020
 - 0.000429885892501 pi_0002_0021 - 0.000343806412006 pi_0002_0022
 - 0.000257778107584 pi_0002_0023 - 0.000171800954169 pi_0002_0024
 - 8.58749266767e-05 pi_0002_0025 >= 0
C_0082_cost_0003: cost_0082 >= 0
C_0082_cost_0004: cost_0082 >= 0
C_0082_cost_0005: cost_0082 >= 0
C_0082_cost_0006: cost_0082 >= 0
C_0082_cost_0007: cost_0082 >= 0
C_0082_cost_0008: cost_0082 >= 0
C_0082_cost_0009: cost_0082 >= 0
C_0082_cost_0010: cost_0082 >= 0
C_0082_cost_0011: cost_0082 >= 0
C_0082_cost_0012: cost_0082 >= 0
C_0082_cost_0013: cost_0082 >= 0
C_0082_cost_0014: cost_0082 >= 0
C_0082_cost_0015: cost_0082 >= 0
C_0082_cost_0016: cost_0082 >= 0
C_0082_cost_0017: cost_0082 >= 0
C_0082_cost_0018: cost_0082 >= 0
C_0082_cost_0019: cost_0082 >= 0
C_0082_cost_0020: cost_0082 >= 0
C_0082_cost_0021: cost_0082 >= 0
C_0082_cost_0022: cost_0082 >= 0
C_0082_cost_0023: cost_0082 >= 0
C_0082_cost_0024: cost_0082 >= 0
C_0082_cost_0025: cost_0082 >= 0
C_0082_cost_0026: cost_0082 - 0.0106666652041 pi_0026_0000 >= 0
C_0082_cost_0027: cost_0082 >= 0
C_0082_cost_0028: cost_0082 >= 0
C_0082_cost_0029: cost_0082 - 0.426666385001 pi_0029_0000 >= 0
C_0082_cost_0030: cost_0082 >= 0
C_0082_cost_0031: cost_0082 >= 0
C_0082_cost_0032: cost_0082 >= 0
C_0082_cost_0033: cost_0082 >= 0
C_0082_cost_0034: cost_0082 >= 0
C_0082_cost_0035: cost_0082 >= 0
C_0082_cost_0036: cost_0082 >= 0
C_0082_linear_0000: - act_0000 + xi_0082_0000 = 26
C_0082_linear_0001: - act_0001 + xi_0082_0001 = 30
C_0082_linear_0002: - act_0002 + xi_0082_0002 = 4280
C_0082_linear_0003: - act_0003 + xi_0082_0003 = 4
C_0082_linear_0004: - act_0004 + xi_0082_0004 = 4
C_0082_linear_0005: - act_0005 + xi_0082_0005 = 2
C_0082_linear_0006: - act_0006 + xi_0082_0006 = 0
C_0082_linear_0007: - act_0007 + xi_0082_0007 = 0
C_0082_linear_0008: - act_0008 + xi_0082_0008 = 1
C_0082_linear_0009: - act_0009 + xi_0082_0009 = 0
C_0082_linear_0010: - act_0010 + xi_0082_0010 = 0
C_0082_linear_0011: - act_0011 + xi_0082_0011 = 0
C_0082_linear_0012: - act_0012 + xi_0082_0012 = 0
C_0082_linear_0013: - act_0013 + xi_0082_0013 = 0
C_0082_linear_0014: - act_0014 + xi_0082_0014 = 0
C_0082_linear_0015: - act_0015 + xi_0082_0015 = 1
C_0082_linear_0016: - act_0016 + xi_0082_0016 = 0
C_0082_linear_0017: - act_0017 + xi_0082_0017 = 0
C_0082_linear_0018: - act_0018 + xi_0082_0018 = 1
C_0082_linear_0019: - act_0019 + xi_0082_0019 = 0
C_0082_linear_0020: - act_0020 + xi_0082_0020 = 0
C_0082_linear_0021: - act_0021 + xi_0082_0021 = 0
C_0082_linear_0022: - act_0022 + xi_0082_0022 = 0
C_0082_linear_0023: - act_0023 + xi_0082_0023 = 0
C_0082_linear_0024: - act_0024 + xi_0082_0024 = 0
C_0082_linear_0025: - act_0025 + xi_0082_0025 = 0
C_0082_linear_0026: - act_0026 + xi_0082_0026 = 0
C_0082_linear_0027: - act_0027 + xi_0082_0027 = 0
C_0082_linear_0028: - act_0028 + xi_0082_0028 = 0
C_0082_linear_0029: - act_0029 + xi_0082_0029 = 0
C_0082_linear_0030: - act_0030 + xi_0082_0030 = 1
C_0082_linear_0031: - act_0031 + xi_0082_0031 = 0
C_0082_linear_0032: - act_0032 + xi_0082_0032 = 1
C_0082_linear_0033: - act_0033 + xi_0082_0033 = 0
C_0082_linear_0034: - act_0034 + xi_0082_0034 = 0
C_0082_linear_0035: - act_0035 + xi_0082_0035 = 1
C_0082_linear_0036: - act_0036 + xi_0082_0036 = 0
C_0082_linear_0037: - act_0037 + xi_0082_0037 = 0
C_0082_linear_0038: - act_0038 + xi_0082_0038 = 0
C_0082_linear_0039: - act_0039 + xi_0082_0039 = 0
C_0082_loss_ge: - 10000 omg_0082 - 0.0111828930987 xi_0082_0000
 + 0.0316585861132 xi_0082_0001 + 0.000106039552982 xi_0082_0002
 + 0.2872356913 xi_0082_0003 + 0.013030358965 xi_0082_0004
 + 0.240120705533 xi_0082_0005 + 0.442580447937 xi_0082_0006
 - 0.375980671537 xi_0082_0007 + 0.392374151169 xi_0082_0008
 + 1.06701819784 xi_0082_0009 - 0.942756746323 xi_0082_0010
 + 0.412027349402 xi_0082_0011 + 0.570359951286 xi_0082_0012
 - 0.852905494999 xi_0082_0013 - 0.323418189169 xi_0082_0014
 + 0.252938924417 xi_0082_0015 - 0.0388599557068 xi_0082_0016
 - 0.020417849004 xi_0082_0017 - 0.119001175529 xi_0082_0018
 + 0.47399163059 xi_0082_0019 - 0.445604107063 xi_0082_0020
 - 0.0184582213876 xi_0082_0021 + 0.307589905785 xi_0082_0022
 + 0.444474821864 xi_0082_0023 - 0.187382383206 xi_0082_0024
 + 0.383302875585 xi_0082_0025 - 0.750161596334 xi_0082_0026
 - 1.33170117681 xi_0082_0027 + 0.0190658885385 xi_0082_0028
 - 0.745784276999 xi_0082_0029 - 0.516231038044 xi_0082_0030
 - 0.409255825925 xi_0082_0031 - 0.0994375517393 xi_0082_0032
 - 0.734256048841 xi_0082_0033 - 0.253933375138 xi_0082_0034
 - 0.256674950149 xi_0082_0035 - 0.732341101218 xi_0082_0036
 - 0.86707443001 xi_0082_0037 - 0.319117177314 xi_0082_0038
 + 0.0697086420108 xi_0082_0039 >= -9998.75705057
C_0082_loss_le: - 10000 omg_0082 - 0.0111828930987 xi_0082_0000
 + 0.0316585861132 xi_0082_0001 + 0.000106039552982 xi_0082_0002
 + 0.2872356913 xi_0082_0003 + 0.013030358965 xi_0082_0004
 + 0.240120705533 xi_0082_0005 + 0.442580447937 xi_0082_0006
 - 0.375980671537 xi_0082_0007 + 0.392374151169 xi_0082_0008
 + 1.06701819784 xi_0082_0009 - 0.942756746323 xi_0082_0010
 + 0.412027349402 xi_0082_0011 + 0.570359951286 xi_0082_0012
 - 0.852905494999 xi_0082_0013 - 0.323418189169 xi_0082_0014
 + 0.252938924417 xi_0082_0015 - 0.0388599557068 xi_0082_0016
 - 0.020417849004 xi_0082_0017 - 0.119001175529 xi_0082_0018
 + 0.47399163059 xi_0082_0019 - 0.445604107063 xi_0082_0020
 - 0.0184582213876 xi_0082_0021 + 0.307589905785 xi_0082_0022
 + 0.444474821864 xi_0082_0023 - 0.187382383206 xi_0082_0024
 + 0.383302875585 xi_0082_0025 - 0.750161596334 xi_0082_0026
 - 1.33170117681 xi_0082_0027 + 0.0190658885385 xi_0082_0028
 - 0.745784276999 xi_0082_0029 - 0.516231038044 xi_0082_0030
 - 0.409255825925 xi_0082_0031 - 0.0994375517393 xi_0082_0032
 - 0.734256048841 xi_0082_0033 - 0.253933375138 xi_0082_0034
 - 0.256674950149 xi_0082_0035 - 0.732341101218 xi_0082_0036
 - 0.86707443001 xi_0082_0037 - 0.319117177314 xi_0082_0038
 + 0.0697086420108 xi_0082_0039 <= 1.24294941651
C_0083_cost_0001: cost_0083 - 0.0246929068628 pi_0001_0000
 - 0.0123216428276 pi_0001_0001 >= 0
C_0083_cost_0002: cost_0083 - 0.00423905618685 pi_0002_0000
 - 0.00407506902207 pi_0002_0001 - 0.0039111577505 pi_0002_0002
 - 0.00374732235093 pi_0002_0003 - 0.00358356280213 pi_0002_0004
 - 0.0034198790829 pi_0002_0005 - 0.00325627117201 pi_0002_0006
 - 0.00309273904822 pi_0002_0007 - 0.00292928269032 pi_0002_0008
 - 0.00276590207708 pi_0002_0009 - 0.00260259718726 pi_0002_0010
 - 0.00243936799962 pi_0002_0011 - 0.00227621449292 pi_0002_0012
 - 0.00211313664593 pi_0002_0013 - 0.0019501344374 pi_0002_0014
 - 0.00178720784609 pi_0002_0015 - 0.00162435685076 pi_0002_0016
 - 0.00146158143014 pi_0002_0017 - 0.00129888156299 pi_0002_0018
 - 0.00113625722805 pi_0002_0019 - 0.000973708404084 pi_0002_0020
 - 0.000811235069819 pi_0002_0021 - 0.000648837204002 pi_0002_0022
 - 0.000486514785373 pi_0002_0023 - 0.000324267792672 pi_0002_0024
 - 0.000162096204635 pi_0002_0025 >= 0
C_0083_cost_0003: cost_0083 >= 0
C_0083_cost_0004: cost_0083 >= 0
C_0083_cost_0005: cost_0083 >= 0
C_0083_cost_0006: cost_0083 >= 0
C_0083_cost_0007: cost_0083 >= 0
C_0083_cost_0008: cost_0083 >= 0
C_0083_cost_0009: cost_0083 >= 0
C_0083_cost_0010: cost_0083 >= 0
C_0083_cost_0011: cost_0083 >= 0
C_0083_cost_0012: cost_0083 >= 0
C_0083_cost_0013: cost_0083 >= 0
C_0083_cost_0014: cost_0083 >= 0
C_0083_cost_0015: cost_0083 >= 0
C_0083_cost_0016: cost_0083 >= 0
C_0083_cost_0017: cost_0083 >= 0
C_0083_cost_0018: cost_0083 >= 0
C_0083_cost_0019: cost_0083 >= 0
C_0083_cost_0020: cost_0083 >= 0
C_0083_cost_0021: cost_0083 >= 0
C_0083_cost_0022: cost_0083 >= 0
C_0083_cost_0023: cost_0083 >= 0
C_0083_cost_0024: cost_0083 >= 0
C_0083_cost_0025: cost_0083 >= 0
C_0083_cost_0026: cost_0083 - 0.0106666652041 pi_0026_0000 >= 0
C_0083_cost_0027: cost_0083 >= 0
C_0083_cost_0028: cost_0083 >= 0
C_0083_cost_0029: cost_0083 - 0.426666385001 pi_0029_0000 >= 0
C_0083_cost_0030: cost_0083 >= 0
C_0083_cost_0031: cost_0083 >= 0
C_0083_cost_0032: cost_0083 >= 0
C_0083_cost_0033: cost_0083 >= 0
C_0083_cost_0034: cost_0083 >= 0
C_0083_cost_0035: cost_0083 >= 0
C_0083_cost_0036: cost_0083 >= 0
C_0083_linear_0000: - act_0000 + xi_0083_0000 = 36
C_0083_linear_0001: - act_0001 + xi_0083_0001 = 36
C_0083_linear_0002: - act_0002 + xi_0083_0002 = 3079
C_0083_linear_0003: - act_0003 + xi_0083_0003 = 4
C_0083_linear_0004: - act_0004 + xi_0083_0004 = 4
C_0083_linear_0005: - act_0005 + xi_0083_0005 = 1
C_0083_linear_0006: - act_0006 + xi_0083_0006 = 0
C_0083_linear_0007: - act_0007 + xi_0083_0007 = 0
C_0083_linear_0008: - act_0008 + xi_0083_0008 = 1
C_0083_linear_0009: - act_0009 + xi_0083_0009 = 0
C_0083_linear_0010: - act_0010 + xi_0083_0010 = 0
C_0083_linear_0011: - act_0011 + xi_0083_0011 = 0
C_0083_linear_0012: - act_0012 + xi_0083_0012 = 0
C_0083_linear_0013: - act_0013 + xi_0083_0013 = 0
C_0083_linear_0014: - act_0014 + xi_0083_0014 = 1
C_0083_linear_0015: - act_0015 + xi_0083_0015 = 0
C_0083_linear_0016: - act_0016 + xi_0083_0016 = 0
C_0083_linear_0017: - act_0017 + xi_0083_0017 = 1
C_0083_linear_0018: - act_0018 + xi_0083_0018 = 0
C_0083_linear_0019: - act_0019 + xi_0083_0019 = 0
C_0083_linear_0020: - act_0020 + xi_0083_0020 = 0
C_0083_linear_0021: - act_0021 + xi_0083_0021 = 0
C_0083_linear_0022: - act_0022 + xi_0083_0022 = 0
C_0083_linear_0023: - act_0023 + xi_0083_0023 = 1
C_0083_linear_0024: - act_0024 + xi_0083_0024 = 0
C_0083_linear_0025: - act_0025 + xi_0083_0025 = 0
C_0083_linear_0026: - act_0026 + xi_0083_0026 = 0
C_0083_linear_0027: - act_0027 + xi_0083_0027 = 0
C_0083_linear_0028: - act_0028 + xi_0083_0028 = 0
C_0083_linear_0029: - act_0029 + xi_0083_0029 = 0
C_0083_linear_0030: - act_0030 + xi_0083_0030 = 1
C_0083_linear_0031: - act_0031 + xi_0083_0031 = 1
C_0083_linear_0032: - act_0032 + xi_0083_0032 = 0
C_0083_linear_0033: - act_0033 + xi_0083_0033 = 0
C_0083_linear_0034: - act_0034 + xi_0083_0034 = 1
C_0083_linear_0035: - act_0035 + xi_0083_0035 = 0
C_0083_linear_0036: - act_0036 + xi_0083_0036 = 0
C_0083_linear_0037: - act_0037 + xi_0083_0037 = 0
C_0083_linear_0038: - act_0038 + xi_0083_0038 = 1
C_0083_linear_0039: - act_0039 + xi_0083_0039 = 1
C_0083_loss_ge: - 10000 omg_0083 - 0.0111828930987 xi_0083_0000
 + 0.0316585861132 xi_0083_0001 + 0.000106039552982 xi_0083_0002
 + 0.2872356913 xi_0083_0003 + 0.013030358965 xi_0083_0004
 + 0.240120705533 xi_0083_0005 + 0.442580447937 xi_0083_0006
 - 0.375980671537 xi_0083_0007 + 0.392374151169 xi_0083_0008
 + 1.06701819784 xi_0083_0009 - 0.942756746323 xi_0083_0010
 + 0.412027349402 xi_0083_0011 + 0.570359951286 xi_0083_0012
 - 0.852905494999 xi_0083_0013 - 0.323418189169 xi_0083_0014
 + 0.252938924417 xi_0083_0015 - 0.0388599557068 xi_0083_0016
 - 0.020417849004 xi_0083_0017 - 0.119001175529 xi_0083_0018
 + 0.47399163059 xi_0083_0019 - 0.445604107063 xi_0083_0020
 - 0.0184582213876 xi_0083_0021 + 0.307589905785 xi_0083_0022
 + 0.444474821864 xi_0083_0023 - 0.187382383206 xi_0083_0024
 + 0.383302875585 xi_0083_0025 - 0.750161596334 xi_0083_0026
 - 1.33170117681 xi_0083_0027 + 0.0190658885385 xi_0083_0028
 - 0.745784276999 xi_0083_0029 - 0.516231038044 xi_0083_0030
 - 0.409255825925 xi_0083_0031 - 0.0994375517393 xi_0083_0032
 - 0.734256048841 xi_0083_0033 - 0.253933375138 xi_0083_0034
 - 0.256674950149 xi_0083_0035 - 0.732341101218 xi_0083_0036
 - 0.86707443001 xi_0083_0037 - 0.319117177314 xi_0083_0038
 + 0.0697086420108 xi_0083_0039 >= -9998.75705057
C_0083_loss_le: - 10000 omg_0083 - 0.0111828930987 xi_0083_0000
 + 0.0316585861132 xi_0083_0001 + 0.000106039552982 xi_0083_0002
 + 0.2872356913 xi_0083_0003 + 0.013030358965 xi_0083_0004
 + 0.240120705533 xi_0083_0005 + 0.442580447937 xi_0083_0006
 - 0.375980671537 xi_0083_0007 + 0.392374151169 xi_0083_0008
 + 1.06701819784 xi_0083_0009 - 0.942756746323 xi_0083_0010
 + 0.412027349402 xi_0083_0011 + 0.570359951286 xi_0083_0012
 - 0.852905494999 xi_0083_0013 - 0.323418189169 xi_0083_0014
 + 0.252938924417 xi_0083_0015 - 0.0388599557068 xi_0083_0016
 - 0.020417849004 xi_0083_0017 - 0.119001175529 xi_0083_0018
 + 0.47399163059 xi_0083_0019 - 0.445604107063 xi_0083_0020
 - 0.0184582213876 xi_0083_0021 + 0.307589905785 xi_0083_0022
 + 0.444474821864 xi_0083_0023 - 0.187382383206 xi_0083_0024
 + 0.383302875585 xi_0083_0025 - 0.750161596334 xi_0083_0026
 - 1.33170117681 xi_0083_0027 + 0.0190658885385 xi_0083_0028
 - 0.745784276999 xi_0083_0029 - 0.516231038044 xi_0083_0030
 - 0.409255825925 xi_0083_0031 - 0.0994375517393 xi_0083_0032
 - 0.734256048841 xi_0083_0033 - 0.253933375138 xi_0083_0034
 - 0.256674950149 xi_0083_0035 - 0.732341101218 xi_0083_0036
 - 0.86707443001 xi_0083_0037 - 0.319117177314 xi_0083_0038
 + 0.0697086420108 xi_0083_0039 <= 1.24294941651
C_0084_cost_0001: cost_0084 - 0.0873361949203 pi_0001_0000
 - 0.0442906580929 pi_0001_0001 >= 0
C_0084_cost_0002: cost_0084 - 0.005651348546 pi_0002_0000
 - 0.00543557534614 pi_0002_0001 - 0.00521967403494 pi_0002_0002
 - 0.00500364476116 pi_0002_0003 - 0.0047874876738 pi_0002_0004
 - 0.00457120292218 pi_0002_0005 - 0.00435479065585 pi_0002_0006
 - 0.00413825102467 pi_0002_0007 - 0.00392158417875 pi_0002_0008
 - 0.0037047902685 pi_0002_0009 - 0.00348786944457 pi_0002_0010
 - 0.00327082185792 pi_0002_0011 - 0.00305364765976 pi_0002_0012
 - 0.00283634700157 pi_0002_0013 - 0.0026189200351 pi_0002_0014
 - 0.0024013669124 pi_0002_0015 - 0.00218368778575 pi_0002_0016
 - 0.00196588280772 pi_0002_0017 - 0.00174795213115 pi_0002_0018
 - 0.00152989590914 pi_0002_0019 - 0.00131171429508 pi_0002_0020
 - 0.0010934074426 pi_0002_0021 - 0.0008749755056 pi_0002_0022
 - 0.00065641863827 pi_0002_0023 - 0.000437736995044 pi_0002_0024
 - 0.00021893073063 pi_0002_0025 >= 0
C_0084_cost_0003: cost_0084 >= 0
C_0084_cost_0004: cost_0084 >= 0
C_0084_cost_0005: cost_0084 >= 0
C_0084_cost_0006: cost_0084 >= 0
C_0084_cost_0007: cost_0084 >= 0
C_0084_cost_0008: cost_0084 >= 0
C_0084_cost_0009: cost_0084 >= 0
C_0084_cost_0010: cost_0084 >= 0
C_0084_cost_0011: cost_0084 >= 0
C_0084_cost_0012: cost_0084 >= 0
C_0084_cost_0013: cost_0084 >= 0
C_0084_cost_0014: cost_0084 >= 0
C_0084_cost_0015: cost_0084 >= 0
C_0084_cost_0016: cost_0084 >= 0
C_0084_cost_0017: cost_0084 >= 0
C_0084_cost_0018: cost_0084 >= 0
C_0084_cost_0019: cost_0084 >= 0
C_0084_cost_0020: cost_0084 >= 0
C_0084_cost_0021: cost_0084 >= 0
C_0084_cost_0022: cost_0084 >= 0
C_0084_cost_0023: cost_0084 >= 0
C_0084_cost_0024: cost_0084 >= 0
C_0084_cost_0025: cost_0084 >= 0
C_0084_cost_0026: cost_0084 - 0.0106666652041 pi_0026_0000 >= 0
C_0084_cost_0027: cost_0084 >= 0
C_0084_cost_0028: cost_0084 >= 0
C_0084_cost_0029: cost_0084 - 0.426666385001 pi_0029_0000 >= 0
C_0084_cost_0030: cost_0084 >= 0
C_0084_cost_0031: cost_0084 >= 0
C_0084_cost_0032: cost_0084 >= 0
C_0084_cost_0033: cost_0084 >= 0
C_0084_cost_0034: cost_0084 >= 0
C_0084_cost_0035: cost_0084 >= 0
C_0084_cost_0036: cost_0084 >= 0
C_0084_linear_0000: - act_0000 + xi_0084_0000 = 27
C_0084_linear_0001: - act_0001 + xi_0084_0001 = 12
C_0084_linear_0002: - act_0002 + xi_0084_0002 = 951
C_0084_linear_0003: - act_0003 + xi_0084_0003 = 4
C_0084_linear_0004: - act_0004 + xi_0084_0004 = 4
C_0084_linear_0005: - act_0005 + xi_0084_0005 = 4
C_0084_linear_0006: - act_0006 + xi_0084_0006 = 0
C_0084_linear_0007: - act_0007 + xi_0084_0007 = 0
C_0084_linear_0008: - act_0008 + xi_0084_0008 = 1
C_0084_linear_0009: - act_0009 + xi_0084_0009 = 0
C_0084_linear_0010: - act_0010 + xi_0084_0010 = 0
C_0084_linear_0011: - act_0011 + xi_0084_0011 = 1
C_0084_linear_0012: - act_0012 + xi_0084_0012 = 0
C_0084_linear_0013: - act_0013 + xi_0084_0013 = 0
C_0084_linear_0014: - act_0014 + xi_0084_0014 = 0
C_0084_linear_0015: - act_0015 + xi_0084_0015 = 1
C_0084_linear_0016: - act_0016 + xi_0084_0016 = 0
C_0084_linear_0017: - act_0017 + xi_0084_0017 = 1
C_0084_linear_0018: - act_0018 + xi_0084_0018 = 0
C_0084_linear_0019: - act_0019 + xi_0084_0019 = 0
C_0084_linear_0020: - act_0020 + xi_0084_0020 = 0
C_0084_linear_0021: - act_0021 + xi_0084_0021 = 1
C_0084_linear_0022: - act_0022 + xi_0084_0022 = 0
C_0084_linear_0023: - act_0023 + xi_0084_0023 = 0
C_0084_linear_0024: - act_0024 + xi_0084_0024 = 0
C_0084_linear_0025: - act_0025 + xi_0084_0025 = 0
C_0084_linear_0026: - act_0026 + xi_0084_0026 = 0
C_0084_linear_0027: - act_0027 + xi_0084_0027 = 0
C_0084_linear_0028: - act_0028 + xi_0084_0028 = 1
C_0084_linear_0029: - act_0029 + xi_0084_0029 = 0
C_0084_linear_0030: - act_0030 + xi_0084_0030 = 0
C_0084_linear_0031: - act_0031 + xi_0084_0031 = 0
C_0084_linear_0032: - act_0032 + xi_0084_0032 = 1
C_0084_linear_0033: - act_0033 + xi_0084_0033 = 0
C_0084_linear_0034: - act_0034 + xi_0084_0034 = 0
C_0084_linear_0035: - act_0035 + xi_0084_0035 = 1
C_0084_linear_0036: - act_0036 + xi_0084_0036 = 0
C_0084_linear_0037: - act_0037 + xi_0084_0037 = 0
C_0084_linear_0038: - act_0038 + xi_0084_0038 = 0
C_0084_linear_0039: - act_0039 + xi_0084_0039 = 0
C_0084_loss_ge: - 10000 omg_0084 - 0.0111828930987 xi_0084_0000
 + 0.0316585861132 xi_0084_0001 + 0.000106039552982 xi_0084_0002
 + 0.2872356913 xi_0084_0003 + 0.013030358965 xi_0084_0004
 + 0.240120705533 xi_0084_0005 + 0.442580447937 xi_0084_0006
 - 0.375980671537 xi_0084_0007 + 0.392374151169 xi_0084_0008
 + 1.06701819784 xi_0084_0009 - 0.942756746323 xi_0084_0010
 + 0.412027349402 xi_0084_0011 + 0.570359951286 xi_0084_0012
 - 0.852905494999 xi_0084_0013 - 0.323418189169 xi_0084_0014
 + 0.252938924417 xi_0084_0015 - 0.0388599557068 xi_0084_0016
 - 0.020417849004 xi_0084_0017 - 0.119001175529 xi_0084_0018
 + 0.47399163059 xi_0084_0019 - 0.445604107063 xi_0084_0020
 - 0.0184582213876 xi_0084_0021 + 0.307589905785 xi_0084_0022
 + 0.444474821864 xi_0084_0023 - 0.187382383206 xi_0084_0024
 + 0.383302875585 xi_0084_0025 - 0.750161596334 xi_0084_0026
 - 1.33170117681 xi_0084_0027 + 0.0190658885385 xi_0084_0028
 - 0.745784276999 xi_0084_0029 - 0.516231038044 xi_0084_0030
 - 0.409255825925 xi_0084_0031 - 0.0994375517393 xi_0084_0032
 - 0.734256048841 xi_0084_0033 - 0.253933375138 xi_0084_0034
 - 0.256674950149 xi_0084_0035 - 0.732341101218 xi_0084_0036
 - 0.86707443001 xi_0084_0037 - 0.319117177314 xi_0084_0038
 + 0.0697086420108 xi_0084_0039 >= -9998.75705057
C_0084_loss_le: - 10000 omg_0084 - 0.0111828930987 xi_0084_0000
 + 0.0316585861132 xi_0084_0001 + 0.000106039552982 xi_0084_0002
 + 0.2872356913 xi_0084_0003 + 0.013030358965 xi_0084_0004
 + 0.240120705533 xi_0084_0005 + 0.442580447937 xi_0084_0006
 - 0.375980671537 xi_0084_0007 + 0.392374151169 xi_0084_0008
 + 1.06701819784 xi_0084_0009 - 0.942756746323 xi_0084_0010
 + 0.412027349402 xi_0084_0011 + 0.570359951286 xi_0084_0012
 - 0.852905494999 xi_0084_0013 - 0.323418189169 xi_0084_0014
 + 0.252938924417 xi_0084_0015 - 0.0388599557068 xi_0084_0016
 - 0.020417849004 xi_0084_0017 - 0.119001175529 xi_0084_0018
 + 0.47399163059 xi_0084_0019 - 0.445604107063 xi_0084_0020
 - 0.0184582213876 xi_0084_0021 + 0.307589905785 xi_0084_0022
 + 0.444474821864 xi_0084_0023 - 0.187382383206 xi_0084_0024
 + 0.383302875585 xi_0084_0025 - 0.750161596334 xi_0084_0026
 - 1.33170117681 xi_0084_0027 + 0.0190658885385 xi_0084_0028
 - 0.745784276999 xi_0084_0029 - 0.516231038044 xi_0084_0030
 - 0.409255825925 xi_0084_0031 - 0.0994375517393 xi_0084_0032
 - 0.734256048841 xi_0084_0033 - 0.253933375138 xi_0084_0034
 - 0.256674950149 xi_0084_0035 - 0.732341101218 xi_0084_0036
 - 0.86707443001 xi_0084_0037 - 0.319117177314 xi_0084_0038
 + 0.0697086420108 xi_0084_0039 <= 1.24294941651
C_0085_cost_0001: cost_0085 - 0.00362232892005 pi_0001_0000
 - 0.00154982319836 pi_0001_0001 >= 0
C_0085_cost_0002: cost_0085 - 9.37566414746e-05 pi_0002_0000
 - 9.01220054081e-05 pi_0002_0001 - 8.64896397886e-05 pi_0002_0002
 - 8.28595469428e-05 pi_0002_0003 - 7.92317291938e-05 pi_0002_0004
 - 7.56061888619e-05 pi_0002_0005 - 7.19829282643e-05 pi_0002_0006
 - 6.83619497148e-05 pi_0002_0007 - 6.47432555242e-05 pi_0002_0008
 - 6.11268479999e-05 pi_0002_0009 - 5.75127294458e-05 pi_0002_0010
 - 5.39009021632e-05 pi_0002_0011 - 5.02913684495e-05 pi_0002_0012
 - 4.66841305993e-05 pi_0002_0013 - 4.30791909036e-05 pi_0002_0014
 - 3.94765516504e-05 pi_0002_0015 - 3.58762151239e-05 pi_0002_0016
 - 3.22781836054e-05 pi_0002_0017 - 2.86824593725e-05 pi_0002_0018
 - 2.50890446996e-05 pi_0002_0019 - 2.14979418577e-05 pi_0002_0020
 - 1.79091531143e-05 pi_0002_0021 - 1.43226807335e-05 pi_0002_0022
 - 1.07385269763e-05 pi_0002_0023 - 7.15669409967e-06 pi_0002_0024
 - 3.57718435751e-06 pi_0002_0025 >= 0
C_0085_cost_0003: cost_0085 >= 0
C_0085_cost_0004: cost_0085 >= 0
C_0085_cost_0005: cost_0085 >= 0
C_0085_cost_0006: cost_0085 >= 0
C_0085_cost_0007: cost_0085 >= 0
C_0085_cost_0008: cost_0085 >= 0
C_0085_cost_0009: cost_0085 >= 0
C_0085_cost_0010: cost_0085 >= 0
C_0085_cost_0011: cost_0085 >= 0
C_0085_cost_0012: cost_0085 >= 0
C_0085_cost_0013: cost_0085 >= 0
C_0085_cost_0014: cost_0085 >= 0
C_0085_cost_0015: cost_0085 >= 0
C_0085_cost_0016: cost_0085 >= 0
C_0085_cost_0017: cost_0085 >= 0
C_0085_cost_0018: cost_0085 >= 0
C_0085_cost_0019: cost_0085 >= 0
C_0085_cost_0020: cost_0085 >= 0
C_0085_cost_0021: cost_0085 >= 0
C_0085_cost_0022: cost_0085 >= 0
C_0085_cost_0023: cost_0085 >= 0
C_0085_cost_0024: cost_0085 >= 0
C_0085_cost_0025: cost_0085 >= 0
C_0085_cost_0026: cost_0085 - 0.0106666652041 pi_0026_0000 >= 0
C_0085_cost_0027: cost_0085 >= 0
C_0085_cost_0028: cost_0085 >= 0
C_0085_cost_0029: cost_0085 - 0.426666385001 pi_0029_0000 >= 0
C_0085_cost_0030: cost_0085 >= 0
C_0085_cost_0031: cost_0085 >= 0
C_0085_cost_0032: cost_0085 >= 0
C_0085_cost_0033: cost_0085 >= 0
C_0085_cost_0034: cost_0085 >= 0
C_0085_cost_0035: cost_0085 >= 0
C_0085_cost_0036: cost_0085 >= 0
C_0085_linear_0000: - act_0000 + xi_0085_0000 = 58
C_0085_linear_0001: - act_0001 + xi_0085_0001 = 54
C_0085_linear_0002: - act_0002 + xi_0085_0002 = 15945
C_0085_linear_0003: - act_0003 + xi_0085_0003 = 3
C_0085_linear_0004: - act_0004 + xi_0085_0004 = 4
C_0085_linear_0005: - act_0005 + xi_0085_0005 = 1
C_0085_linear_0006: - act_0006 + xi_0085_0006 = 0
C_0085_linear_0007: - act_0007 + xi_0085_0007 = 1
C_0085_linear_0008: - act_0008 + xi_0085_0008 = 1
C_0085_linear_0009: - act_0009 + xi_0085_0009 = 0
C_0085_linear_0010: - act_0010 + xi_0085_0010 = 0
C_0085_linear_0011: - act_0011 + xi_0085_0011 = 0
C_0085_linear_0012: - act_0012 + xi_0085_0012 = 0
C_0085_linear_0013: - act_0013 + xi_0085_0013 = 0
C_0085_linear_0014: - act_0014 + xi_0085_0014 = 0
C_0085_linear_0015: - act_0015 + xi_0085_0015 = 1
C_0085_linear_0016: - act_0016 + xi_0085_0016 = 0
C_0085_linear_0017: - act_0017 + xi_0085_0017 = 1
C_0085_linear_0018: - act_0018 + xi_0085_0018 = 1
C_0085_linear_0019: - act_0019 + xi_0085_0019 = 0
C_0085_linear_0020: - act_0020 + xi_0085_0020 = 0
C_0085_linear_0021: - act_0021 + xi_0085_0021 = 0
C_0085_linear_0022: - act_0022 + xi_0085_0022 = 0
C_0085_linear_0023: - act_0023 + xi_0085_0023 = 0
C_0085_linear_0024: - act_0024 + xi_0085_0024 = 0
C_0085_linear_0025: - act_0025 + xi_0085_0025 = 0
C_0085_linear_0026: - act_0026 + xi_0085_0026 = 0
C_0085_linear_0027: - act_0027 + xi_0085_0027 = 0
C_0085_linear_0028: - act_0028 + xi_0085_0028 = 1
C_0085_linear_0029: - act_0029 + xi_0085_0029 = 0
C_0085_linear_0030: - act_0030 + xi_0085_0030 = 0
C_0085_linear_0031: - act_0031 + xi_0085_0031 = 0
C_0085_linear_0032: - act_0032 + xi_0085_0032 = 1
C_0085_linear_0033: - act_0033 + xi_0085_0033 = 0
C_0085_linear_0034: - act_0034 + xi_0085_0034 = 1
C_0085_linear_0035: - act_0035 + xi_0085_0035 = 0
C_0085_linear_0036: - act_0036 + xi_0085_0036 = 0
C_0085_linear_0037: - act_0037 + xi_0085_0037 = 0
C_0085_linear_0038: - act_0038 + xi_0085_0038 = 1
C_0085_linear_0039: - act_0039 + xi_0085_0039 = 1
C_0085_loss_ge: - 10000 omg_0085 - 0.0111828930987 xi_0085_0000
 + 0.0316585861132 xi_0085_0001 + 0.000106039552982 xi_0085_0002
 + 0.2872356913 xi_0085_0003 + 0.013030358965 xi_0085_0004
 + 0.240120705533 xi_0085_0005 + 0.442580447937 xi_0085_0006
 - 0.375980671537 xi_0085_0007 + 0.392374151169 xi_0085_0008
 + 1.06701819784 xi_0085_0009 - 0.942756746323 xi_0085_0010
 + 0.412027349402 xi_0085_0011 + 0.570359951286 xi_0085_0012
 - 0.852905494999 xi_0085_0013 - 0.323418189169 xi_0085_0014
 + 0.252938924417 xi_0085_0015 - 0.0388599557068 xi_0085_0016
 - 0.020417849004 xi_0085_0017 - 0.119001175529 xi_0085_0018
 + 0.47399163059 xi_0085_0019 - 0.445604107063 xi_0085_0020
 - 0.0184582213876 xi_0085_0021 + 0.307589905785 xi_0085_0022
 + 0.444474821864 xi_0085_0023 - 0.187382383206 xi_0085_0024
 + 0.383302875585 xi_0085_0025 - 0.750161596334 xi_0085_0026
 - 1.33170117681 xi_0085_0027 + 0.0190658885385 xi_0085_0028
 - 0.745784276999 xi_0085_0029 - 0.516231038044 xi_0085_0030
 - 0.409255825925 xi_0085_0031 - 0.0994375517393 xi_0085_0032
 - 0.734256048841 xi_0085_0033 - 0.253933375138 xi_0085_0034
 - 0.256674950149 xi_0085_0035 - 0.732341101218 xi_0085_0036
 - 0.86707443001 xi_0085_0037 - 0.319117177314 xi_0085_0038
 + 0.0697086420108 xi_0085_0039 >= -9998.75705057
C_0085_loss_le: - 10000 omg_0085 - 0.0111828930987 xi_0085_0000
 + 0.0316585861132 xi_0085_0001 + 0.000106039552982 xi_0085_0002
 + 0.2872356913 xi_0085_0003 + 0.013030358965 xi_0085_0004
 + 0.240120705533 xi_0085_0005 + 0.442580447937 xi_0085_0006
 - 0.375980671537 xi_0085_0007 + 0.392374151169 xi_0085_0008
 + 1.06701819784 xi_0085_0009 - 0.942756746323 xi_0085_0010
 + 0.412027349402 xi_0085_0011 + 0.570359951286 xi_0085_0012
 - 0.852905494999 xi_0085_0013 - 0.323418189169 xi_0085_0014
 + 0.252938924417 xi_0085_0015 - 0.0388599557068 xi_0085_0016
 - 0.020417849004 xi_0085_0017 - 0.119001175529 xi_0085_0018
 + 0.47399163059 xi_0085_0019 - 0.445604107063 xi_0085_0020
 - 0.0184582213876 xi_0085_0021 + 0.307589905785 xi_0085_0022
 + 0.444474821864 xi_0085_0023 - 0.187382383206 xi_0085_0024
 + 0.383302875585 xi_0085_0025 - 0.750161596334 xi_0085_0026
 - 1.33170117681 xi_0085_0027 + 0.0190658885385 xi_0085_0028
 - 0.745784276999 xi_0085_0029 - 0.516231038044 xi_0085_0030
 - 0.409255825925 xi_0085_0031 - 0.0994375517393 xi_0085_0032
 - 0.734256048841 xi_0085_0033 - 0.253933375138 xi_0085_0034
 - 0.256674950149 xi_0085_0035 - 0.732341101218 xi_0085_0036
 - 0.86707443001 xi_0085_0037 - 0.319117177314 xi_0085_0038
 + 0.0697086420108 xi_0085_0039 <= 1.24294941651
C_0086_cost_0001: cost_0086 - 0.0653909198978 pi_0001_0000
 - 0.0317669758175 pi_0001_0001 >= 0
C_0086_cost_0002: cost_0086 - 0.00107915088737 pi_0002_0000
 - 0.0010375572168 pi_0002_0001 - 0.000995970502385 pi_0002_0002
 - 0.00095439075332 pi_0002_0003 - 0.000912817978792 pi_0002_0004
 - 0.000871252187981 pi_0002_0005 - 0.000829693390063 pi_0002_0006
 - 0.000788141594202 pi_0002_0007 - 0.000746596809558 pi_0002_0008
 - 0.000705059045282 pi_0002_0009 - 0.000663528310518 pi_0002_0010
 - 0.000622004614402 pi_0002_0011 - 0.000580487966064 pi_0002_0012
 - 0.000538978374624 pi_0002_0013 - 0.000497475849198 pi_0002_0014
 - 0.00045598039889 pi_0002_0015 - 0.0004144920328 pi_0002_0016
 - 0.000373010760018 pi_0002_0017 - 0.000331536589628 pi_0002_0018
 - 0.000290069530705 pi_0002_0019 - 0.000248609592316 pi_0002_0020
 - 0.000207156783522 pi_0002_0021 - 0.000165711113373 pi_0002_0022
 - 0.000124272590915 pi_0002_0023 - 8.28412251822e-05 pi_0002_0024
 - 4.14170252041e-05 pi_0002_0025 >= 0
C_0086_cost_0003: cost_0086 >= 0
C_0086_cost_0004: cost_0086 >= 0
C_0086_cost_0005: cost_0086 >= 0
C_0086_cost_0006: cost_0086 >= 0
C_0086_cost_0007: cost_0086 >= 0
C_0086_cost_0008: cost_0086 >= 0
C_0086_cost_0009: cost_0086 >= 0
C_0086_cost_0010: cost_0086 >= 0
C_0086_cost_0011: cost_0086 >= 0
C_0086_cost_0012: cost_0086 >= 0
C_0086_cost_0013: cost_0086 >= 0
C_0086_cost_0014: cost_0086 >= 0
C_0086_cost_0015: cost_0086 >= 0
C_0086_cost_0016: cost_0086 >= 0
C_0086_cost_0017: cost_0086 >= 0
C_0086_cost_0018: cost_0086 >= 0
C_0086_cost_0019: cost_0086 >= 0
C_0086_cost_0020: cost_0086 >= 0
C_0086_cost_0021: cost_0086 >= 0
C_0086_cost_0022: cost_0086 >= 0
C_0086_cost_0023: cost_0086 >= 0
C_0086_cost_0024: cost_0086 >= 0
C_0086_cost_0025: cost_0086 >= 0
C_0086_cost_0026: cost_0086 - 0.0106666652041 pi_0026_0000 >= 0
C_0086_cost_0027: cost_0086 >= 0
C_0086_cost_0028: cost_0086 >= 0
C_0086_cost_0029: cost_0086 - 0.426666385001 pi_0029_0000 >= 0
C_0086_cost_0030: cost_0086 >= 0
C_0086_cost_0031: cost_0086 >= 0
C_0086_cost_0032: cost_0086 >= 0
C_0086_cost_0033: cost_0086 >= 0
C_0086_cost_0034: cost_0086 >= 0
C_0086_cost_0035: cost_0086 >= 0
C_0086_cost_0036: cost_0086 >= 0
C_0086_linear_0000: - act_0000 + xi_0086_0000 = 68
C_0086_linear_0001: - act_0001 + xi_0086_0001 = 18
C_0086_linear_0002: - act_0002 + xi_0086_0002 = 6761
C_0086_linear_0003: - act_0003 + xi_0086_0003 = 2
C_0086_linear_0004: - act_0004 + xi_0086_0004 = 4
C_0086_linear_0005: - act_0005 + xi_0086_0005 = 2
C_0086_linear_0006: - act_0006 + xi_0086_0006 = 0
C_0086_linear_0007: - act_0007 + xi_0086_0007 = 0
C_0086_linear_0008: - act_0008 + xi_0086_0008 = 1
C_0086_linear_0009: - act_0009 + xi_0086_0009 = 0
C_0086_linear_0010: - act_0010 + xi_0086_0010 = 0
C_0086_linear_0011: - act_0011 + xi_0086_0011 = 0
C_0086_linear_0012: - act_0012 + xi_0086_0012 = 0
C_0086_linear_0013: - act_0013 + xi_0086_0013 = 0
C_0086_linear_0014: - act_0014 + xi_0086_0014 = 0
C_0086_linear_0015: - act_0015 + xi_0086_0015 = 1
C_0086_linear_0016: - act_0016 + xi_0086_0016 = 0
C_0086_linear_0017: - act_0017 + xi_0086_0017 = 1
C_0086_linear_0018: - act_0018 + xi_0086_0018 = 0
C_0086_linear_0019: - act_0019 + xi_0086_0019 = 0
C_0086_linear_0020: - act_0020 + xi_0086_0020 = 0
C_0086_linear_0021: - act_0021 + xi_0086_0021 = 0
C_0086_linear_0022: - act_0022 + xi_0086_0022 = 0
C_0086_linear_0023: - act_0023 + xi_0086_0023 = 1
C_0086_linear_0024: - act_0024 + xi_0086_0024 = 0
C_0086_linear_0025: - act_0025 + xi_0086_0025 = 0
C_0086_linear_0026: - act_0026 + xi_0086_0026 = 0
C_0086_linear_0027: - act_0027 + xi_0086_0027 = 0
C_0086_linear_0028: - act_0028 + xi_0086_0028 = 0
C_0086_linear_0029: - act_0029 + xi_0086_0029 = 0
C_0086_linear_0030: - act_0030 + xi_0086_0030 = 1
C_0086_linear_0031: - act_0031 + xi_0086_0031 = 1
C_0086_linear_0032: - act_0032 + xi_0086_0032 = 0
C_0086_linear_0033: - act_0033 + xi_0086_0033 = 0
C_0086_linear_0034: - act_0034 + xi_0086_0034 = 1
C_0086_linear_0035: - act_0035 + xi_0086_0035 = 0
C_0086_linear_0036: - act_0036 + xi_0086_0036 = 0
C_0086_linear_0037: - act_0037 + xi_0086_0037 = 0
C_0086_linear_0038: - act_0038 + xi_0086_0038 = 1
C_0086_linear_0039: - act_0039 + xi_0086_0039 = 1
C_0086_loss_ge: - 10000 omg_0086 - 0.0111828930987 xi_0086_0000
 + 0.0316585861132 xi_0086_0001 + 0.000106039552982 xi_0086_0002
 + 0.2872356913 xi_0086_0003 + 0.013030358965 xi_0086_0004
 + 0.240120705533 xi_0086_0005 + 0.442580447937 xi_0086_0006
 - 0.375980671537 xi_0086_0007 + 0.392374151169 xi_0086_0008
 + 1.06701819784 xi_0086_0009 - 0.942756746323 xi_0086_0010
 + 0.412027349402 xi_0086_0011 + 0.570359951286 xi_0086_0012
 - 0.852905494999 xi_0086_0013 - 0.323418189169 xi_0086_0014
 + 0.252938924417 xi_0086_0015 - 0.0388599557068 xi_0086_0016
 - 0.020417849004 xi_0086_0017 - 0.119001175529 xi_0086_0018
 + 0.47399163059 xi_0086_0019 - 0.445604107063 xi_0086_0020
 - 0.0184582213876 xi_0086_0021 + 0.307589905785 xi_0086_0022
 + 0.444474821864 xi_0086_0023 - 0.187382383206 xi_0086_0024
 + 0.383302875585 xi_0086_0025 - 0.750161596334 xi_0086_0026
 - 1.33170117681 xi_0086_0027 + 0.0190658885385 xi_0086_0028
 - 0.745784276999 xi_0086_0029 - 0.516231038044 xi_0086_0030
 - 0.409255825925 xi_0086_0031 - 0.0994375517393 xi_0086_0032
 - 0.734256048841 xi_0086_0033 - 0.253933375138 xi_0086_0034
 - 0.256674950149 xi_0086_0035 - 0.732341101218 xi_0086_0036
 - 0.86707443001 xi_0086_0037 - 0.319117177314 xi_0086_0038
 + 0.0697086420108 xi_0086_0039 >= -9998.75705057
C_0086_loss_le: - 10000 omg_0086 - 0.0111828930987 xi_0086_0000
 + 0.0316585861132 xi_0086_0001 + 0.000106039552982 xi_0086_0002
 + 0.2872356913 xi_0086_0003 + 0.013030358965 xi_0086_0004
 + 0.240120705533 xi_0086_0005 + 0.442580447937 xi_0086_0006
 - 0.375980671537 xi_0086_0007 + 0.392374151169 xi_0086_0008
 + 1.06701819784 xi_0086_0009 - 0.942756746323 xi_0086_0010
 + 0.412027349402 xi_0086_0011 + 0.570359951286 xi_0086_0012
 - 0.852905494999 xi_0086_0013 - 0.323418189169 xi_0086_0014
 + 0.252938924417 xi_0086_0015 - 0.0388599557068 xi_0086_0016
 - 0.020417849004 xi_0086_0017 - 0.119001175529 xi_0086_0018
 + 0.47399163059 xi_0086_0019 - 0.445604107063 xi_0086_0020
 - 0.0184582213876 xi_0086_0021 + 0.307589905785 xi_0086_0022
 + 0.444474821864 xi_0086_0023 - 0.187382383206 xi_0086_0024
 + 0.383302875585 xi_0086_0025 - 0.750161596334 xi_0086_0026
 - 1.33170117681 xi_0086_0027 + 0.0190658885385 xi_0086_0028
 - 0.745784276999 xi_0086_0029 - 0.516231038044 xi_0086_0030
 - 0.409255825925 xi_0086_0031 - 0.0994375517393 xi_0086_0032
 - 0.734256048841 xi_0086_0033 - 0.253933375138 xi_0086_0034
 - 0.256674950149 xi_0086_0035 - 0.732341101218 xi_0086_0036
 - 0.86707443001 xi_0086_0037 - 0.319117177314 xi_0086_0038
 + 0.0697086420108 xi_0086_0039 <= 1.24294941651
C_0087_cost_0001: cost_0087 - 0.0246929068628 pi_0001_0000
 - 0.0123216428276 pi_0001_0001 >= 0
C_0087_cost_0002: cost_0087 - 0.000354094985901 pi_0002_0000
 - 0.000340406556003 pi_0002_0001 - 0.000326723713561 pi_0002_0002
 - 0.00031304645404 pi_0002_0003 - 0.000299374772914 pi_0002_0004
 - 0.000285708665655 pi_0002_0005 - 0.000272048127743 pi_0002_0006
 - 0.000258393154659 pi_0002_0007 - 0.00024474374189 pi_0002_0008
 - 0.000231099884922 pi_0002_0009 - 0.00021746157925 pi_0002_0010
 - 0.000203828820369 pi_0002_0011 - 0.000190201603778 pi_0002_0012
 - 0.00017657992498 pi_0002_0013 - 0.000162963779482 pi_0002_0014
 - 0.000149353162794 pi_0002_0015 - 0.000135748070428 pi_0002_0016
 - 0.000122148497903 pi_0002_0017 - 0.000108554440738 pi_0002_0018
 - 9.49658944581e-05 pi_0002_0019 - 8.13828545896e-05 pi_0002_0020
 - 6.78053166637e-05 pi_0002_0021 - 5.4233276215e-05 pi_0002_0022
 - 4.06667287812e-05 pi_0002_0023 - 2.71056699037e-05 pi_0002_0024
 - 1.35500951272e-05 pi_0002_0025 >= 0
C_0087_cost_0003: cost_0087 >= 0
C_0087_cost_0004: cost_0087 >= 0
C_0087_cost_0005: cost_0087 >= 0
C_0087_cost_0006: cost_0087 >= 0
C_0087_cost_0007: cost_0087 >= 0
C_0087_cost_0008: cost_0087 >= 0
C_0087_cost_0009: cost_0087 >= 0
C_0087_cost_0010: cost_0087 >= 0
C_0087_cost_0011: cost_0087 >= 0
C_0087_cost_0012: cost_0087 >= 0
C_0087_cost_0013: cost_0087 >= 0
C_0087_cost_0014: cost_0087 >= 0
C_0087_cost_0015: cost_0087 >= 0
C_0087_cost_0016: cost_0087 >= 0
C_0087_cost_0017: cost_0087 >= 0
C_0087_cost_0018: cost_0087 >= 0
C_0087_cost_0019: cost_0087 >= 0
C_0087_cost_0020: cost_0087 >= 0
C_0087_cost_0021: cost_0087 >= 0
C_0087_cost_0022: cost_0087 >= 0
C_0087_cost_0023: cost_0087 >= 0
C_0087_cost_0024: cost_0087 >= 0
C_0087_cost_0025: cost_0087 >= 0
C_0087_cost_0026: cost_0087 - 0.0106666652041 pi_0026_0000 >= 0
C_0087_cost_0027: cost_0087 >= 0
C_0087_cost_0028: cost_0087 >= 0
C_0087_cost_0029: cost_0087 - 0.426666385001 pi_0029_0000 >= 0
C_0087_cost_0030: cost_0087 >= 0
C_0087_cost_0031: cost_0087 >= 0
C_0087_cost_0032: cost_0087 >= 0
C_0087_cost_0033: cost_0087 >= 0
C_0087_cost_0034: cost_0087 >= 0
C_0087_cost_0035: cost_0087 >= 0
C_0087_cost_0036: cost_0087 >= 0
C_0087_linear_0000: - act_0000 + xi_0087_0000 = 28
C_0087_linear_0001: - act_0001 + xi_0087_0001 = 36
C_0087_linear_0002: - act_0002 + xi_0087_0002 = 9572
C_0087_linear_0003: - act_0003 + xi_0087_0003 = 1
C_0087_linear_0004: - act_0004 + xi_0087_0004 = 1
C_0087_linear_0005: - act_0005 + xi_0087_0005 = 2
C_0087_linear_0006: - act_0006 + xi_0087_0006 = 0
C_0087_linear_0007: - act_0007 + xi_0087_0007 = 0
C_0087_linear_0008: - act_0008 + xi_0087_0008 = 0
C_0087_linear_0009: - act_0009 + xi_0087_0009 = 0
C_0087_linear_0010: - act_0010 + xi_0087_0010 = 0
C_0087_linear_0011: - act_0011 + xi_0087_0011 = 0
C_0087_linear_0012: - act_0012 + xi_0087_0012 = 0
C_0087_linear_0013: - act_0013 + xi_0087_0013 = 0
C_0087_linear_0014: - act_0014 + xi_0087_0014 = 1
C_0087_linear_0015: - act_0015 + xi_0087_0015 = 0
C_0087_linear_0016: - act_0016 + xi_0087_0016 = 0
C_0087_linear_0017: - act_0017 + xi_0087_0017 = 1
C_0087_linear_0018: - act_0018 + xi_0087_0018 = 1
C_0087_linear_0019: - act_0019 + xi_0087_0019 = 0
C_0087_linear_0020: - act_0020 + xi_0087_0020 = 0
C_0087_linear_0021: - act_0021 + xi_0087_0021 = 0
C_0087_linear_0022: - act_0022 + xi_0087_0022 = 0
C_0087_linear_0023: - act_0023 + xi_0087_0023 = 0
C_0087_linear_0024: - act_0024 + xi_0087_0024 = 0
C_0087_linear_0025: - act_0025 + xi_0087_0025 = 0
C_0087_linear_0026: - act_0026 + xi_0087_0026 = 0
C_0087_linear_0027: - act_0027 + xi_0087_0027 = 0
C_0087_linear_0028: - act_0028 + xi_0087_0028 = 1
C_0087_linear_0029: - act_0029 + xi_0087_0029 = 0
C_0087_linear_0030: - act_0030 + xi_0087_0030 = 0
C_0087_linear_0031: - act_0031 + xi_0087_0031 = 1
C_0087_linear_0032: - act_0032 + xi_0087_0032 = 0
C_0087_linear_0033: - act_0033 + xi_0087_0033 = 0
C_0087_linear_0034: - act_0034 + xi_0087_0034 = 1
C_0087_linear_0035: - act_0035 + xi_0087_0035 = 0
C_0087_linear_0036: - act_0036 + xi_0087_0036 = 0
C_0087_linear_0037: - act_0037 + xi_0087_0037 = 0
C_0087_linear_0038: - act_0038 + xi_0087_0038 = 0
C_0087_linear_0039: - act_0039 + xi_0087_0039 = 1
C_0087_loss_ge: - 10000 omg_0087 - 0.0111828930987 xi_0087_0000
 + 0.0316585861132 xi_0087_0001 + 0.000106039552982 xi_0087_0002
 + 0.2872356913 xi_0087_0003 + 0.013030358965 xi_0087_0004
 + 0.240120705533 xi_0087_0005 + 0.442580447937 xi_0087_0006
 - 0.375980671537 xi_0087_0007 + 0.392374151169 xi_0087_0008
 + 1.06701819784 xi_0087_0009 - 0.942756746323 xi_0087_0010
 + 0.412027349402 xi_0087_0011 + 0.570359951286 xi_0087_0012
 - 0.852905494999 xi_0087_0013 - 0.323418189169 xi_0087_0014
 + 0.252938924417 xi_0087_0015 - 0.0388599557068 xi_0087_0016
 - 0.020417849004 xi_0087_0017 - 0.119001175529 xi_0087_0018
 + 0.47399163059 xi_0087_0019 - 0.445604107063 xi_0087_0020
 - 0.0184582213876 xi_0087_0021 + 0.307589905785 xi_0087_0022
 + 0.444474821864 xi_0087_0023 - 0.187382383206 xi_0087_0024
 + 0.383302875585 xi_0087_0025 - 0.750161596334 xi_0087_0026
 - 1.33170117681 xi_0087_0027 + 0.0190658885385 xi_0087_0028
 - 0.745784276999 xi_0087_0029 - 0.516231038044 xi_0087_0030
 - 0.409255825925 xi_0087_0031 - 0.0994375517393 xi_0087_0032
 - 0.734256048841 xi_0087_0033 - 0.253933375138 xi_0087_0034
 - 0.256674950149 xi_0087_0035 - 0.732341101218 xi_0087_0036
 - 0.86707443001 xi_0087_0037 - 0.319117177314 xi_0087_0038
 + 0.0697086420108 xi_0087_0039 >= -9998.75705057
C_0087_loss_le: - 10000 omg_0087 - 0.0111828930987 xi_0087_0000
 + 0.0316585861132 xi_0087_0001 + 0.000106039552982 xi_0087_0002
 + 0.2872356913 xi_0087_0003 + 0.013030358965 xi_0087_0004
 + 0.240120705533 xi_0087_0005 + 0.442580447937 xi_0087_0006
 - 0.375980671537 xi_0087_0007 + 0.392374151169 xi_0087_0008
 + 1.06701819784 xi_0087_0009 - 0.942756746323 xi_0087_0010
 + 0.412027349402 xi_0087_0011 + 0.570359951286 xi_0087_0012
 - 0.852905494999 xi_0087_0013 - 0.323418189169 xi_0087_0014
 + 0.252938924417 xi_0087_0015 - 0.0388599557068 xi_0087_0016
 - 0.020417849004 xi_0087_0017 - 0.119001175529 xi_0087_0018
 + 0.47399163059 xi_0087_0019 - 0.445604107063 xi_0087_0020
 - 0.0184582213876 xi_0087_0021 + 0.307589905785 xi_0087_0022
 + 0.444474821864 xi_0087_0023 - 0.187382383206 xi_0087_0024
 + 0.383302875585 xi_0087_0025 - 0.750161596334 xi_0087_0026
 - 1.33170117681 xi_0087_0027 + 0.0190658885385 xi_0087_0028
 - 0.745784276999 xi_0087_0029 - 0.516231038044 xi_0087_0030
 - 0.409255825925 xi_0087_0031 - 0.0994375517393 xi_0087_0032
 - 0.734256048841 xi_0087_0033 - 0.253933375138 xi_0087_0034
 - 0.256674950149 xi_0087_0035 - 0.732341101218 xi_0087_0036
 - 0.86707443001 xi_0087_0037 - 0.319117177314 xi_0087_0038
 + 0.0697086420108 xi_0087_0039 <= 1.24294941651
C_0088_cost_0001: cost_0088 - 0.0246929068628 pi_0001_0000
 - 0.0123216428276 pi_0001_0001 >= 0
C_0088_cost_0002: cost_0088 - 0.00105419800094 pi_0002_0000
 - 0.00101355053349 pi_0002_0001 - 0.000972911113396 pi_0002_0002
 - 0.000932279748718 pi_0002_0003 - 0.000891656447487 pi_0002_0004
 - 0.000851041217727 pi_0002_0005 - 0.000810434067453 pi_0002_0006
 - 0.000769835004666 pi_0002_0007 - 0.000729244037359 pi_0002_0008
 - 0.000688661173514 pi_0002_0009 - 0.000648086421101 pi_0002_0010
 - 0.000607519788081 pi_0002_0011 - 0.000566961282404 pi_0002_0012
 - 0.000526410912008 pi_0002_0013 - 0.000485868684821 pi_0002_0014
 - 0.000445334608761 pi_0002_0015 - 0.000404808691734 pi_0002_0016
 - 0.000364290941636 pi_0002_0017 - 0.000323781366351 pi_0002_0018
 - 0.000283279973755 pi_0002_0019 - 0.00024278677171 pi_0002_0020
 - 0.000202301768069 pi_0002_0021 - 0.000161824970673 pi_0002_0022
 - 0.000121356387354 pi_0002_0023 - 8.08960259313e-05 pi_0002_0024
 - 4.04438942139e-05 pi_0002_0025 >= 0
C_0088_cost_0003: cost_0088 >= 0
C_0088_cost_0004: cost_0088 >= 0
C_0088_cost_0005: cost_0088 >= 0
C_0088_cost_0006: cost_0088 >= 0
C_0088_cost_0007: cost_0088 >= 0
C_0088_cost_0008: cost_0088 >= 0
C_0088_cost_0009: cost_0088 >= 0
C_0088_cost_0010: cost_0088 >= 0
C_0088_cost_0011: cost_0088 >= 0
C_0088_cost_0012: cost_0088 >= 0
C_0088_cost_0013: cost_0088 >= 0
C_0088_cost_0014: cost_0088 >= 0
C_0088_cost_0015: cost_0088 >= 0
C_0088_cost_0016: cost_0088 >= 0
C_0088_cost_0017: cost_0088 >= 0
C_0088_cost_0018: cost_0088 >= 0
C_0088_cost_0019: cost_0088 >= 0
C_0088_cost_0020: cost_0088 >= 0
C_0088_cost_0021: cost_0088 >= 0
C_0088_cost_0022: cost_0088 >= 0
C_0088_cost_0023: cost_0088 >= 0
C_0088_cost_0024: cost_0088 >= 0
C_0088_cost_0025: cost_0088 >= 0
C_0088_cost_0026: cost_0088 - 0.0106666652041 pi_0026_0000 >= 0
C_0088_cost_0027: cost_0088 >= 0
C_0088_cost_0028: cost_0088 >= 0
C_0088_cost_0029: cost_0088 - 0.426666385001 pi_0029_0000 >= 0
C_0088_cost_0030: cost_0088 >= 0
C_0088_cost_0031: cost_0088 >= 0
C_0088_cost_0032: cost_0088 >= 0
C_0088_cost_0033: cost_0088 >= 0
C_0088_cost_0034: cost_0088 >= 0
C_0088_cost_0035: cost_0088 >= 0
C_0088_cost_0036: cost_0088 >= 0
C_0088_linear_0000: - act_0000 + xi_0088_0000 = 29
C_0088_linear_0001: - act_0001 + xi_0088_0001 = 36
C_0088_linear_0002: - act_0002 + xi_0088_0002 = 6887
C_0088_linear_0003: - act_0003 + xi_0088_0003 = 4
C_0088_linear_0004: - act_0004 + xi_0088_0004 = 3
C_0088_linear_0005: - act_0005 + xi_0088_0005 = 1
C_0088_linear_0006: - act_0006 + xi_0088_0006 = 0
C_0088_linear_0007: - act_0007 + xi_0088_0007 = 1
C_0088_linear_0008: - act_0008 + xi_0088_0008 = 0
C_0088_linear_0009: - act_0009 + xi_0088_0009 = 0
C_0088_linear_0010: - act_0010 + xi_0088_0010 = 0
C_0088_linear_0011: - act_0011 + xi_0088_0011 = 0
C_0088_linear_0012: - act_0012 + xi_0088_0012 = 0
C_0088_linear_0013: - act_0013 + xi_0088_0013 = 0
C_0088_linear_0014: - act_0014 + xi_0088_0014 = 1
C_0088_linear_0015: - act_0015 + xi_0088_0015 = 0
C_0088_linear_0016: - act_0016 + xi_0088_0016 = 0
C_0088_linear_0017: - act_0017 + xi_0088_0017 = 1
C_0088_linear_0018: - act_0018 + xi_0088_0018 = 0
C_0088_linear_0019: - act_0019 + xi_0088_0019 = 1
C_0088_linear_0020: - act_0020 + xi_0088_0020 = 0
C_0088_linear_0021: - act_0021 + xi_0088_0021 = 0
C_0088_linear_0022: - act_0022 + xi_0088_0022 = 0
C_0088_linear_0023: - act_0023 + xi_0088_0023 = 0
C_0088_linear_0024: - act_0024 + xi_0088_0024 = 0
C_0088_linear_0025: - act_0025 + xi_0088_0025 = 0
C_0088_linear_0026: - act_0026 + xi_0088_0026 = 0
C_0088_linear_0027: - act_0027 + xi_0088_0027 = 0
C_0088_linear_0028: - act_0028 + xi_0088_0028 = 0
C_0088_linear_0029: - act_0029 + xi_0088_0029 = 0
C_0088_linear_0030: - act_0030 + xi_0088_0030 = 1
C_0088_linear_0031: - act_0031 + xi_0088_0031 = 1
C_0088_linear_0032: - act_0032 + xi_0088_0032 = 0
C_0088_linear_0033: - act_0033 + xi_0088_0033 = 0
C_0088_linear_0034: - act_0034 + xi_0088_0034 = 1
C_0088_linear_0035: - act_0035 + xi_0088_0035 = 0
C_0088_linear_0036: - act_0036 + xi_0088_0036 = 0
C_0088_linear_0037: - act_0037 + xi_0088_0037 = 0
C_0088_linear_0038: - act_0038 + xi_0088_0038 = 1
C_0088_linear_0039: - act_0039 + xi_0088_0039 = 1
C_0088_loss_ge: - 10000 omg_0088 - 0.0111828930987 xi_0088_0000
 + 0.0316585861132 xi_0088_0001 + 0.000106039552982 xi_0088_0002
 + 0.2872356913 xi_0088_0003 + 0.013030358965 xi_0088_0004
 + 0.240120705533 xi_0088_0005 + 0.442580447937 xi_0088_0006
 - 0.375980671537 xi_0088_0007 + 0.392374151169 xi_0088_0008
 + 1.06701819784 xi_0088_0009 - 0.942756746323 xi_0088_0010
 + 0.412027349402 xi_0088_0011 + 0.570359951286 xi_0088_0012
 - 0.852905494999 xi_0088_0013 - 0.323418189169 xi_0088_0014
 + 0.252938924417 xi_0088_0015 - 0.0388599557068 xi_0088_0016
 - 0.020417849004 xi_0088_0017 - 0.119001175529 xi_0088_0018
 + 0.47399163059 xi_0088_0019 - 0.445604107063 xi_0088_0020
 - 0.0184582213876 xi_0088_0021 + 0.307589905785 xi_0088_0022
 + 0.444474821864 xi_0088_0023 - 0.187382383206 xi_0088_0024
 + 0.383302875585 xi_0088_0025 - 0.750161596334 xi_0088_0026
 - 1.33170117681 xi_0088_0027 + 0.0190658885385 xi_0088_0028
 - 0.745784276999 xi_0088_0029 - 0.516231038044 xi_0088_0030
 - 0.409255825925 xi_0088_0031 - 0.0994375517393 xi_0088_0032
 - 0.734256048841 xi_0088_0033 - 0.253933375138 xi_0088_0034
 - 0.256674950149 xi_0088_0035 - 0.732341101218 xi_0088_0036
 - 0.86707443001 xi_0088_0037 - 0.319117177314 xi_0088_0038
 + 0.0697086420108 xi_0088_0039 >= -9998.75705057
C_0088_loss_le: - 10000 omg_0088 - 0.0111828930987 xi_0088_0000
 + 0.0316585861132 xi_0088_0001 + 0.000106039552982 xi_0088_0002
 + 0.2872356913 xi_0088_0003 + 0.013030358965 xi_0088_0004
 + 0.240120705533 xi_0088_0005 + 0.442580447937 xi_0088_0006
 - 0.375980671537 xi_0088_0007 + 0.392374151169 xi_0088_0008
 + 1.06701819784 xi_0088_0009 - 0.942756746323 xi_0088_0010
 + 0.412027349402 xi_0088_0011 + 0.570359951286 xi_0088_0012
 - 0.852905494999 xi_0088_0013 - 0.323418189169 xi_0088_0014
 + 0.252938924417 xi_0088_0015 - 0.0388599557068 xi_0088_0016
 - 0.020417849004 xi_0088_0017 - 0.119001175529 xi_0088_0018
 + 0.47399163059 xi_0088_0019 - 0.445604107063 xi_0088_0020
 - 0.0184582213876 xi_0088_0021 + 0.307589905785 xi_0088_0022
 + 0.444474821864 xi_0088_0023 - 0.187382383206 xi_0088_0024
 + 0.383302875585 xi_0088_0025 - 0.750161596334 xi_0088_0026
 - 1.33170117681 xi_0088_0027 + 0.0190658885385 xi_0088_0028
 - 0.745784276999 xi_0088_0029 - 0.516231038044 xi_0088_0030
 - 0.409255825925 xi_0088_0031 - 0.0994375517393 xi_0088_0032
 - 0.734256048841 xi_0088_0033 - 0.253933375138 xi_0088_0034
 - 0.256674950149 xi_0088_0035 - 0.732341101218 xi_0088_0036
 - 0.86707443001 xi_0088_0037 - 0.319117177314 xi_0088_0038
 + 0.0697086420108 xi_0088_0039 <= 1.24294941651
C_0089_cost_0001: cost_0089 - 0.0672952094184 pi_0001_0000
 - 0.0360319142459 pi_0001_0001 >= 0
C_0089_cost_0002: cost_0089 - 0.00645226572991 pi_0002_0000
 - 0.00620340370004 pi_0002_0001 - 0.00595459664674 pi_0002_0002
 - 0.00570584467897 pi_0002_0003 - 0.0054571479054 pi_0002_0004
 - 0.0052085064345 pi_0002_0005 - 0.00495992037448 pi_0002_0006
 - 0.00471138983333 pi_0002_0007 - 0.00446291491877 pi_0002_0008
 - 0.00421449573831 pi_0002_0009 - 0.00396613239922 pi_0002_0010
 - 0.00371782500851 pi_0002_0011 - 0.00346957367297 pi_0002_0012
 - 0.00322137849915 pi_0002_0013 - 0.00297323959334 pi_0002_0014
 - 0.00272515706164 pi_0002_0015 - 0.00247713100985 pi_0002_0016
 - 0.00222916154358 pi_0002_0017 - 0.00198124876817 pi_0002_0018
 - 0.00173339278875 pi_0002_0019 - 0.00148559371019 pi_0002_0020
 - 0.00123785163713 pi_0002_0021 - 0.000990166673972 pi_0002_0022
 - 0.000742538924873 pi_0002_0023 - 0.00049496849376 pi_0002_0024
 - 0.000247455484319 pi_0002_0025 >= 0
C_0089_cost_0003: cost_0089 >= 0
C_0089_cost_0004: cost_0089 >= 0
C_0089_cost_0005: cost_0089 >= 0
C_0089_cost_0006: cost_0089 >= 0
C_0089_cost_0007: cost_0089 >= 0
C_0089_cost_0008: cost_0089 >= 0
C_0089_cost_0009: cost_0089 >= 0
C_0089_cost_0010: cost_0089 >= 0
C_0089_cost_0011: cost_0089 >= 0
C_0089_cost_0012: cost_0089 >= 0
C_0089_cost_0013: cost_0089 >= 0
C_0089_cost_0014: cost_0089 >= 0
C_0089_cost_0015: cost_0089 >= 0
C_0089_cost_0016: cost_0089 >= 0
C_0089_cost_0017: cost_0089 >= 0
C_0089_cost_0018: cost_0089 >= 0
C_0089_cost_0019: cost_0089 >= 0
C_0089_cost_0020: cost_0089 >= 0
C_0089_cost_0021: cost_0089 >= 0
C_0089_cost_0022: cost_0089 >= 0
C_0089_cost_0023: cost_0089 >= 0
C_0089_cost_0024: cost_0089 >= 0
C_0089_cost_0025: cost_0089 >= 0
C_0089_cost_0026: cost_0089 - 0.0106666652041 pi_0026_0000 >= 0
C_0089_cost_0027: cost_0089 >= 0
C_0089_cost_0028: cost_0089 >= 0
C_0089_cost_0029: cost_0089 - 0.426666385001 pi_0029_0000 >= 0
C_0089_cost_0030: cost_0089 >= 0
C_0089_cost_0031: cost_0089 >= 0
C_0089_cost_0032: cost_0089 >= 0
C_0089_cost_0033: cost_0089 >= 0
C_0089_cost_0034: cost_0089 >= 0
C_0089_cost_0035: cost_0089 >= 0
C_0089_cost_0036: cost_0089 >= 0
C_0089_linear_0000: - act_0000 + xi_0089_0000 = 19
C_0089_linear_0001: - act_0001 + xi_0089_0001 = 9
C_0089_linear_0002: - act_0002 + xi_0089_0002 = 1980
C_0089_linear_0003: - act_0003 + xi_0089_0003 = 2
C_0089_linear_0004: - act_0004 + xi_0089_0004 = 2
C_0089_linear_0005: - act_0005 + xi_0089_0005 = 2
C_0089_linear_0006: - act_0006 + xi_0089_0006 = 0
C_0089_linear_0007: - act_0007 + xi_0089_0007 = 0
C_0089_linear_0008: - act_0008 + xi_0089_0008 = 1
C_0089_linear_0009: - act_0009 + xi_0089_0009 = 0
C_0089_linear_0010: - act_0010 + xi_0089_0010 = 0
C_0089_linear_0011: - act_0011 + xi_0089_0011 = 0
C_0089_linear_0012: - act_0012 + xi_0089_0012 = 1
C_0089_linear_0013: - act_0013 + xi_0089_0013 = 0
C_0089_linear_0014: - act_0014 + xi_0089_0014 = 0
C_0089_linear_0015: - act_0015 + xi_0089_0015 = 1
C_0089_linear_0016: - act_0016 + xi_0089_0016 = 0
C_0089_linear_0017: - act_0017 + xi_0089_0017 = 1
C_0089_linear_0018: - act_0018 + xi_0089_0018 = 0
C_0089_linear_0019: - act_0019 + xi_0089_0019 = 0
C_0089_linear_0020: - act_0020 + xi_0089_0020 = 0
C_0089_linear_0021: - act_0021 + xi_0089_0021 = 1
C_0089_linear_0022: - act_0022 + xi_0089_0022 = 0
C_0089_linear_0023: - act_0023 + xi_0089_0023 = 0
C_0089_linear_0024: - act_0024 + xi_0089_0024 = 0
C_0089_linear_0025: - act_0025 + xi_0089_0025 = 0
C_0089_linear_0026: - act_0026 + xi_0089_0026 = 0
C_0089_linear_0027: - act_0027 + xi_0089_0027 = 0
C_0089_linear_0028: - act_0028 + xi_0089_0028 = 1
C_0089_linear_0029: - act_0029 + xi_0089_0029 = 0
C_0089_linear_0030: - act_0030 + xi_0089_0030 = 0
C_0089_linear_0031: - act_0031 + xi_0089_0031 = 1
C_0089_linear_0032: - act_0032 + xi_0089_0032 = 0
C_0089_linear_0033: - act_0033 + xi_0089_0033 = 0
C_0089_linear_0034: - act_0034 + xi_0089_0034 = 1
C_0089_linear_0035: - act_0035 + xi_0089_0035 = 0
C_0089_linear_0036: - act_0036 + xi_0089_0036 = 0
C_0089_linear_0037: - act_0037 + xi_0089_0037 = 0
C_0089_linear_0038: - act_0038 + xi_0089_0038 = 0
C_0089_linear_0039: - act_0039 + xi_0089_0039 = 0
C_0089_loss_ge: - 10000 omg_0089 - 0.0111828930987 xi_0089_0000
 + 0.0316585861132 xi_0089_0001 + 0.000106039552982 xi_0089_0002
 + 0.2872356913 xi_0089_0003 + 0.013030358965 xi_0089_0004
 + 0.240120705533 xi_0089_0005 + 0.442580447937 xi_0089_0006
 - 0.375980671537 xi_0089_0007 + 0.392374151169 xi_0089_0008
 + 1.06701819784 xi_0089_0009 - 0.942756746323 xi_0089_0010
 + 0.412027349402 xi_0089_0011 + 0.570359951286 xi_0089_0012
 - 0.852905494999 xi_0089_0013 - 0.323418189169 xi_0089_0014
 + 0.252938924417 xi_0089_0015 - 0.0388599557068 xi_0089_0016
 - 0.020417849004 xi_0089_0017 - 0.119001175529 xi_0089_0018
 + 0.47399163059 xi_0089_0019 - 0.445604107063 xi_0089_0020
 - 0.0184582213876 xi_0089_0021 + 0.307589905785 xi_0089_0022
 + 0.444474821864 xi_0089_0023 - 0.187382383206 xi_0089_0024
 + 0.383302875585 xi_0089_0025 - 0.750161596334 xi_0089_0026
 - 1.33170117681 xi_0089_0027 + 0.0190658885385 xi_0089_0028
 - 0.745784276999 xi_0089_0029 - 0.516231038044 xi_0089_0030
 - 0.409255825925 xi_0089_0031 - 0.0994375517393 xi_0089_0032
 - 0.734256048841 xi_0089_0033 - 0.253933375138 xi_0089_0034
 - 0.256674950149 xi_0089_0035 - 0.732341101218 xi_0089_0036
 - 0.86707443001 xi_0089_0037 - 0.319117177314 xi_0089_0038
 + 0.0697086420108 xi_0089_0039 >= -9998.75705057
C_0089_loss_le: - 10000 omg_0089 - 0.0111828930987 xi_0089_0000
 + 0.0316585861132 xi_0089_0001 + 0.000106039552982 xi_0089_0002
 + 0.2872356913 xi_0089_0003 + 0.013030358965 xi_0089_0004
 + 0.240120705533 xi_0089_0005 + 0.442580447937 xi_0089_0006
 - 0.375980671537 xi_0089_0007 + 0.392374151169 xi_0089_0008
 + 1.06701819784 xi_0089_0009 - 0.942756746323 xi_0089_0010
 + 0.412027349402 xi_0089_0011 + 0.570359951286 xi_0089_0012
 - 0.852905494999 xi_0089_0013 - 0.323418189169 xi_0089_0014
 + 0.252938924417 xi_0089_0015 - 0.0388599557068 xi_0089_0016
 - 0.020417849004 xi_0089_0017 - 0.119001175529 xi_0089_0018
 + 0.47399163059 xi_0089_0019 - 0.445604107063 xi_0089_0020
 - 0.0184582213876 xi_0089_0021 + 0.307589905785 xi_0089_0022
 + 0.444474821864 xi_0089_0023 - 0.187382383206 xi_0089_0024
 + 0.383302875585 xi_0089_0025 - 0.750161596334 xi_0089_0026
 - 1.33170117681 xi_0089_0027 + 0.0190658885385 xi_0089_0028
 - 0.745784276999 xi_0089_0029 - 0.516231038044 xi_0089_0030
 - 0.409255825925 xi_0089_0031 - 0.0994375517393 xi_0089_0032
 - 0.734256048841 xi_0089_0033 - 0.253933375138 xi_0089_0034
 - 0.256674950149 xi_0089_0035 - 0.732341101218 xi_0089_0036
 - 0.86707443001 xi_0089_0037 - 0.319117177314 xi_0089_0038
 + 0.0697086420108 xi_0089_0039 <= 1.24294941651
C_0090_cost_0001: cost_0090 - 0.0873361949203 pi_0001_0000
 - 0.0442906580929 pi_0001_0001 >= 0
C_0090_cost_0002: cost_0090 - 0.00617054637257 pi_0002_0000
 - 0.00593233514366 pi_0002_0001 - 0.00569419396803 pi_0002_0002
 - 0.00545612291551 pi_0002_0003 - 0.0052181220557 pi_0002_0004
 - 0.00498019145797 pi_0002_0005 - 0.00474233119148 pi_0002_0006
 - 0.00450454132518 pi_0002_0007 - 0.00426682192778 pi_0002_0008
 - 0.0040291730678 pi_0002_0009 - 0.00379159481351 pi_0002_0010
 - 0.003554087233 pi_0002_0011 - 0.0033166503941 pi_0002_0012
 - 0.00307928436445 pi_0002_0013 - 0.00284198921147 pi_0002_0014
 - 0.00260476500235 pi_0002_0015 - 0.00236761180409 pi_0002_0016
 - 0.00213052968345 pi_0002_0017 - 0.00189351870697 pi_0002_0018
 - 0.001656578941 pi_0002_0019 - 0.00141971045165 pi_0002_0020
 - 0.00118291330482 pi_0002_0021 - 0.000946187566193 pi_0002_0022
 - 0.000709533301251 pi_0002_0023 - 0.000472950575246 pi_0002_0024
 - 0.00023643945322 pi_0002_0025 >= 0
C_0090_cost_0003: cost_0090 >= 0
C_0090_cost_0004: cost_0090 >= 0
C_0090_cost_0005: cost_0090 >= 0
C_0090_cost_0006: cost_0090 >= 0
C_0090_cost_0007: cost_0090 >= 0
C_0090_cost_0008: cost_0090 >= 0
C_0090_cost_0009: cost_0090 >= 0
C_0090_cost_0010: cost_0090 >= 0
C_0090_cost_0011: cost_0090 >= 0
C_0090_cost_0012: cost_0090 >= 0
C_0090_cost_0013: cost_0090 >= 0
C_0090_cost_0014: cost_0090 >= 0
C_0090_cost_0015: cost_0090 >= 0
C_0090_cost_0016: cost_0090 >= 0
C_0090_cost_0017: cost_0090 >= 0
C_0090_cost_0018: cost_0090 >= 0
C_0090_cost_0019: cost_0090 >= 0
C_0090_cost_0020: cost_0090 >= 0
C_0090_cost_0021: cost_0090 >= 0
C_0090_cost_0022: cost_0090 >= 0
C_0090_cost_0023: cost_0090 >= 0
C_0090_cost_0024: cost_0090 >= 0
C_0090_cost_0025: cost_0090 >= 0
C_0090_cost_0026: cost_0090 - 0.0106666652041 pi_0026_0000 >= 0
C_0090_cost_0027: cost_0090 >= 0
C_0090_cost_0028: cost_0090 >= 0
C_0090_cost_0029: cost_0090 - 0.426666385001 pi_0029_0000 >= 0
C_0090_cost_0030: cost_0090 >= 0
C_0090_cost_0031: cost_0090 >= 0
C_0090_cost_0032: cost_0090 >= 0
C_0090_cost_0033: cost_0090 >= 0
C_0090_cost_0034: cost_0090 >= 0
C_0090_cost_0035: cost_0090 >= 0
C_0090_cost_0036: cost_0090 >= 0
C_0090_linear_0000: - act_0000 + xi_0090_0000 = 29
C_0090_linear_0001: - act_0001 + xi_0090_0001 = 12
C_0090_linear_0002: - act_0002 + xi_0090_0002 = 2149
C_0090_linear_0003: - act_0003 + xi_0090_0003 = 4
C_0090_linear_0004: - act_0004 + xi_0090_0004 = 1
C_0090_linear_0005: - act_0005 + xi_0090_0005 = 1
C_0090_linear_0006: - act_0006 + xi_0090_0006 = 0
C_0090_linear_0007: - act_0007 + xi_0090_0007 = 0
C_0090_linear_0008: - act_0008 + xi_0090_0008 = 1
C_0090_linear_0009: - act_0009 + xi_0090_0009 = 1
C_0090_linear_0010: - act_0010 + xi_0090_0010 = 0
C_0090_linear_0011: - act_0011 + xi_0090_0011 = 0
C_0090_linear_0012: - act_0012 + xi_0090_0012 = 0
C_0090_linear_0013: - act_0013 + xi_0090_0013 = 0
C_0090_linear_0014: - act_0014 + xi_0090_0014 = 0
C_0090_linear_0015: - act_0015 + xi_0090_0015 = 0
C_0090_linear_0016: - act_0016 + xi_0090_0016 = 0
C_0090_linear_0017: - act_0017 + xi_0090_0017 = 1
C_0090_linear_0018: - act_0018 + xi_0090_0018 = 0
C_0090_linear_0019: - act_0019 + xi_0090_0019 = 0
C_0090_linear_0020: - act_0020 + xi_0090_0020 = 1
C_0090_linear_0021: - act_0021 + xi_0090_0021 = 0
C_0090_linear_0022: - act_0022 + xi_0090_0022 = 0
C_0090_linear_0023: - act_0023 + xi_0090_0023 = 0
C_0090_linear_0024: - act_0024 + xi_0090_0024 = 0
C_0090_linear_0025: - act_0025 + xi_0090_0025 = 0
C_0090_linear_0026: - act_0026 + xi_0090_0026 = 0
C_0090_linear_0027: - act_0027 + xi_0090_0027 = 0
C_0090_linear_0028: - act_0028 + xi_0090_0028 = 0
C_0090_linear_0029: - act_0029 + xi_0090_0029 = 0
C_0090_linear_0030: - act_0030 + xi_0090_0030 = 1
C_0090_linear_0031: - act_0031 + xi_0090_0031 = 1
C_0090_linear_0032: - act_0032 + xi_0090_0032 = 0
C_0090_linear_0033: - act_0033 + xi_0090_0033 = 0
C_0090_linear_0034: - act_0034 + xi_0090_0034 = 1
C_0090_linear_0035: - act_0035 + xi_0090_0035 = 0
C_0090_linear_0036: - act_0036 + xi_0090_0036 = 0
C_0090_linear_0037: - act_0037 + xi_0090_0037 = 0
C_0090_linear_0038: - act_0038 + xi_0090_0038 = 0
C_0090_linear_0039: - act_0039 + xi_0090_0039 = 1
C_0090_loss_ge: - 10000 omg_0090 - 0.0111828930987 xi_0090_0000
 + 0.0316585861132 xi_0090_0001 + 0.000106039552982 xi_0090_0002
 + 0.2872356913 xi_0090_0003 + 0.013030358965 xi_0090_0004
 + 0.240120705533 xi_0090_0005 + 0.442580447937 xi_0090_0006
 - 0.375980671537 xi_0090_0007 + 0.392374151169 xi_0090_0008
 + 1.06701819784 xi_0090_0009 - 0.942756746323 xi_0090_0010
 + 0.412027349402 xi_0090_0011 + 0.570359951286 xi_0090_0012
 - 0.852905494999 xi_0090_0013 - 0.323418189169 xi_0090_0014
 + 0.252938924417 xi_0090_0015 - 0.0388599557068 xi_0090_0016
 - 0.020417849004 xi_0090_0017 - 0.119001175529 xi_0090_0018
 + 0.47399163059 xi_0090_0019 - 0.445604107063 xi_0090_0020
 - 0.0184582213876 xi_0090_0021 + 0.307589905785 xi_0090_0022
 + 0.444474821864 xi_0090_0023 - 0.187382383206 xi_0090_0024
 + 0.383302875585 xi_0090_0025 - 0.750161596334 xi_0090_0026
 - 1.33170117681 xi_0090_0027 + 0.0190658885385 xi_0090_0028
 - 0.745784276999 xi_0090_0029 - 0.516231038044 xi_0090_0030
 - 0.409255825925 xi_0090_0031 - 0.0994375517393 xi_0090_0032
 - 0.734256048841 xi_0090_0033 - 0.253933375138 xi_0090_0034
 - 0.256674950149 xi_0090_0035 - 0.732341101218 xi_0090_0036
 - 0.86707443001 xi_0090_0037 - 0.319117177314 xi_0090_0038
 + 0.0697086420108 xi_0090_0039 >= -9998.75705057
C_0090_loss_le: - 10000 omg_0090 - 0.0111828930987 xi_0090_0000
 + 0.0316585861132 xi_0090_0001 + 0.000106039552982 xi_0090_0002
 + 0.2872356913 xi_0090_0003 + 0.013030358965 xi_0090_0004
 + 0.240120705533 xi_0090_0005 + 0.442580447937 xi_0090_0006
 - 0.375980671537 xi_0090_0007 + 0.392374151169 xi_0090_0008
 + 1.06701819784 xi_0090_0009 - 0.942756746323 xi_0090_0010
 + 0.412027349402 xi_0090_0011 + 0.570359951286 xi_0090_0012
 - 0.852905494999 xi_0090_0013 - 0.323418189169 xi_0090_0014
 + 0.252938924417 xi_0090_0015 - 0.0388599557068 xi_0090_0016
 - 0.020417849004 xi_0090_0017 - 0.119001175529 xi_0090_0018
 + 0.47399163059 xi_0090_0019 - 0.445604107063 xi_0090_0020
 - 0.0184582213876 xi_0090_0021 + 0.307589905785 xi_0090_0022
 + 0.444474821864 xi_0090_0023 - 0.187382383206 xi_0090_0024
 + 0.383302875585 xi_0090_0025 - 0.750161596334 xi_0090_0026
 - 1.33170117681 xi_0090_0027 + 0.0190658885385 xi_0090_0028
 - 0.745784276999 xi_0090_0029 - 0.516231038044 xi_0090_0030
 - 0.409255825925 xi_0090_0031 - 0.0994375517393 xi_0090_0032
 - 0.734256048841 xi_0090_0033 - 0.253933375138 xi_0090_0034
 - 0.256674950149 xi_0090_0035 - 0.732341101218 xi_0090_0036
 - 0.86707443001 xi_0090_0037 - 0.319117177314 xi_0090_0038
 + 0.0697086420108 xi_0090_0039 <= 1.24294941651
C_0091_cost_0001: cost_0091 - 0.0639671434312 pi_0001_0000
 - 0.0315831062354 pi_0001_0001 >= 0
C_0091_cost_0002: cost_0091 - 0.000210094826957 pi_0002_0000
 - 0.000201987185043 pi_0002_0001 - 0.000193881713946 pi_0002_0002
 - 0.000185778413042 pi_0002_0003 - 0.000177677281705 pi_0002_0004
 - 0.000169578319309 pi_0002_0005 - 0.000161481525224 pi_0002_0006
 - 0.000153386898817 pi_0002_0007 - 0.000145294439455 pi_0002_0008
 - 0.000137204146503 pi_0002_0009 - 0.000129116019321 pi_0002_0010
 - 0.000121030057269 pi_0002_0011 - 0.000112946259705 pi_0002_0012
 - 0.000104864625984 pi_0002_0013 - 9.6785155459e-05 pi_0002_0014
 - 8.87078474811e-05 pi_0002_0015 - 8.06327013988e-05 pi_0002_0016
 - 7.25597165587e-05 pi_0002_0017 - 6.44888923054e-05 pi_0002_0018
 - 5.64202279807e-05 pi_0002_0019 - 4.8353722925e-05 pi_0002_0020
 - 4.02893764758e-05 pi_0002_0021 - 3.22271879688e-05 pi_0002_0022
 - 2.41671567377e-05 pi_0002_0023 - 1.61092821134e-05 pi_0002_0024
 - 8.05356342526e-06 pi_0002_0025 >= 0
C_0091_cost_0003: cost_0091 >= 0
C_0091_cost_0004: cost_0091 >= 0
C_0091_cost_0005: cost_0091 >= 0
C_0091_cost_0006: cost_0091 >= 0
C_0091_cost_0007: cost_0091 >= 0
C_0091_cost_0008: cost_0091 >= 0
C_0091_cost_0009: cost_0091 >= 0
C_0091_cost_0010: cost_0091 >= 0
C_0091_cost_0011: cost_0091 >= 0
C_0091_cost_0012: cost_0091 >= 0
C_0091_cost_0013: cost_0091 >= 0
C_0091_cost_0014: cost_0091 >= 0
C_0091_cost_0015: cost_0091 >= 0
C_0091_cost_0016: cost_0091 >= 0
C_0091_cost_0017: cost_0091 >= 0
C_0091_cost_0018: cost_0091 >= 0
C_0091_cost_0019: cost_0091 >= 0
C_0091_cost_0020: cost_0091 >= 0
C_0091_cost_0021: cost_0091 >= 0
C_0091_cost_0022: cost_0091 >= 0
C_0091_cost_0023: cost_0091 >= 0
C_0091_cost_0024: cost_0091 >= 0
C_0091_cost_0025: cost_0091 >= 0
C_0091_cost_0026: cost_0091 - 0.0106666652041 pi_0026_0000 >= 0
C_0091_cost_0027: cost_0091 >= 0
C_0091_cost_0028: cost_0091 >= 0
C_0091_cost_0029: cost_0091 - 0.426666385001 pi_0029_0000 >= 0
C_0091_cost_0030: cost_0091 >= 0
C_0091_cost_0031: cost_0091 >= 0
C_0091_cost_0032: cost_0091 >= 0
C_0091_cost_0033: cost_0091 >= 0
C_0091_cost_0034: cost_0091 >= 0
C_0091_cost_0035: cost_0091 >= 0
C_0091_cost_0036: cost_0091 >= 0
C_0091_linear_0000: - act_0000 + xi_0091_0000 = 29
C_0091_linear_0001: - act_0001 + xi_0091_0001 = 24
C_0091_linear_0002: - act_0002 + xi_0091_0002 = 11328
C_0091_linear_0003: - act_0003 + xi_0091_0003 = 2
C_0091_linear_0004: - act_0004 + xi_0091_0004 = 3
C_0091_linear_0005: - act_0005 + xi_0091_0005 = 2
C_0091_linear_0006: - act_0006 + xi_0091_0006 = 0
C_0091_linear_0007: - act_0007 + xi_0091_0007 = 1
C_0091_linear_0008: - act_0008 + xi_0091_0008 = 1
C_0091_linear_0009: - act_0009 + xi_0091_0009 = 0
C_0091_linear_0010: - act_0010 + xi_0091_0010 = 0
C_0091_linear_0011: - act_0011 + xi_0091_0011 = 1
C_0091_linear_0012: - act_0012 + xi_0091_0012 = 1
C_0091_linear_0013: - act_0013 + xi_0091_0013 = 0
C_0091_linear_0014: - act_0014 + xi_0091_0014 = 1
C_0091_linear_0015: - act_0015 + xi_0091_0015 = 0
C_0091_linear_0016: - act_0016 + xi_0091_0016 = 0
C_0091_linear_0017: - act_0017 + xi_0091_0017 = 1
C_0091_linear_0018: - act_0018 + xi_0091_0018 = 0
C_0091_linear_0019: - act_0019 + xi_0091_0019 = 0
C_0091_linear_0020: - act_0020 + xi_0091_0020 = 0
C_0091_linear_0021: - act_0021 + xi_0091_0021 = 0
C_0091_linear_0022: - act_0022 + xi_0091_0022 = 0
C_0091_linear_0023: - act_0023 + xi_0091_0023 = 0
C_0091_linear_0024: - act_0024 + xi_0091_0024 = 1
C_0091_linear_0025: - act_0025 + xi_0091_0025 = 0
C_0091_linear_0026: - act_0026 + xi_0091_0026 = 0
C_0091_linear_0027: - act_0027 + xi_0091_0027 = 0
C_0091_linear_0028: - act_0028 + xi_0091_0028 = 0
C_0091_linear_0029: - act_0029 + xi_0091_0029 = 0
C_0091_linear_0030: - act_0030 + xi_0091_0030 = 1
C_0091_linear_0031: - act_0031 + xi_0091_0031 = 0
C_0091_linear_0032: - act_0032 + xi_0091_0032 = 1
C_0091_linear_0033: - act_0033 + xi_0091_0033 = 0
C_0091_linear_0034: - act_0034 + xi_0091_0034 = 1
C_0091_linear_0035: - act_0035 + xi_0091_0035 = 0
C_0091_linear_0036: - act_0036 + xi_0091_0036 = 0
C_0091_linear_0037: - act_0037 + xi_0091_0037 = 0
C_0091_linear_0038: - act_0038 + xi_0091_0038 = 1
C_0091_linear_0039: - act_0039 + xi_0091_0039 = 1
C_0091_loss_ge: - 10000 omg_0091 - 0.0111828930987 xi_0091_0000
 + 0.0316585861132 xi_0091_0001 + 0.000106039552982 xi_0091_0002
 + 0.2872356913 xi_0091_0003 + 0.013030358965 xi_0091_0004
 + 0.240120705533 xi_0091_0005 + 0.442580447937 xi_0091_0006
 - 0.375980671537 xi_0091_0007 + 0.392374151169 xi_0091_0008
 + 1.06701819784 xi_0091_0009 - 0.942756746323 xi_0091_0010
 + 0.412027349402 xi_0091_0011 + 0.570359951286 xi_0091_0012
 - 0.852905494999 xi_0091_0013 - 0.323418189169 xi_0091_0014
 + 0.252938924417 xi_0091_0015 - 0.0388599557068 xi_0091_0016
 - 0.020417849004 xi_0091_0017 - 0.119001175529 xi_0091_0018
 + 0.47399163059 xi_0091_0019 - 0.445604107063 xi_0091_0020
 - 0.0184582213876 xi_0091_0021 + 0.307589905785 xi_0091_0022
 + 0.444474821864 xi_0091_0023 - 0.187382383206 xi_0091_0024
 + 0.383302875585 xi_0091_0025 - 0.750161596334 xi_0091_0026
 - 1.33170117681 xi_0091_0027 + 0.0190658885385 xi_0091_0028
 - 0.745784276999 xi_0091_0029 - 0.516231038044 xi_0091_0030
 - 0.409255825925 xi_0091_0031 - 0.0994375517393 xi_0091_0032
 - 0.734256048841 xi_0091_0033 - 0.253933375138 xi_0091_0034
 - 0.256674950149 xi_0091_0035 - 0.732341101218 xi_0091_0036
 - 0.86707443001 xi_0091_0037 - 0.319117177314 xi_0091_0038
 + 0.0697086420108 xi_0091_0039 >= -9998.75705057
C_0091_loss_le: - 10000 omg_0091 - 0.0111828930987 xi_0091_0000
 + 0.0316585861132 xi_0091_0001 + 0.000106039552982 xi_0091_0002
 + 0.2872356913 xi_0091_0003 + 0.013030358965 xi_0091_0004
 + 0.240120705533 xi_0091_0005 + 0.442580447937 xi_0091_0006
 - 0.375980671537 xi_0091_0007 + 0.392374151169 xi_0091_0008
 + 1.06701819784 xi_0091_0009 - 0.942756746323 xi_0091_0010
 + 0.412027349402 xi_0091_0011 + 0.570359951286 xi_0091_0012
 - 0.852905494999 xi_0091_0013 - 0.323418189169 xi_0091_0014
 + 0.252938924417 xi_0091_0015 - 0.0388599557068 xi_0091_0016
 - 0.020417849004 xi_0091_0017 - 0.119001175529 xi_0091_0018
 + 0.47399163059 xi_0091_0019 - 0.445604107063 xi_0091_0020
 - 0.0184582213876 xi_0091_0021 + 0.307589905785 xi_0091_0022
 + 0.444474821864 xi_0091_0023 - 0.187382383206 xi_0091_0024
 + 0.383302875585 xi_0091_0025 - 0.750161596334 xi_0091_0026
 - 1.33170117681 xi_0091_0027 + 0.0190658885385 xi_0091_0028
 - 0.745784276999 xi_0091_0029 - 0.516231038044 xi_0091_0030
 - 0.409255825925 xi_0091_0031 - 0.0994375517393 xi_0091_0032
 - 0.734256048841 xi_0091_0033 - 0.253933375138 xi_0091_0034
 - 0.256674950149 xi_0091_0035 - 0.732341101218 xi_0091_0036
 - 0.86707443001 xi_0091_0037 - 0.319117177314 xi_0091_0038
 + 0.0697086420108 xi_0091_0039 <= 1.24294941651
C_0092_cost_0001: cost_0092 - 0.0639671434312 pi_0001_0000
 - 0.0315831062354 pi_0001_0001 >= 0
C_0092_cost_0002: cost_0092 - 0.0064286154454 pi_0002_0000
 - 0.0061822674921 pi_0002_0001 - 0.00593584538615 pi_0002_0002
 - 0.00568934933132 pi_0002_0003 - 0.00544277953144 pi_0002_0004
 - 0.00519613619046 pi_0002_0005 - 0.00494941951237 pi_0002_0006
 - 0.00470262970126 pi_0002_0007 - 0.00445576696129 pi_0002_0008
 - 0.00420883149671 pi_0002_0009 - 0.00396182351183 pi_0002_0010
 - 0.00371474321105 pi_0002_0011 - 0.00346759079882 pi_0002_0012
 - 0.0032203664797 pi_0002_0013 - 0.00297307045829 pi_0002_0014
 - 0.00272570293929 pi_0002_0015 - 0.00247826412745 pi_0002_0016
 - 0.0022307542276 pi_0002_0017 - 0.00198317344465 pi_0002_0018
 - 0.00173552198357 pi_0002_0019 - 0.00148780004938 pi_0002_0020
 - 0.00124000784721 pi_0002_0021 - 0.000992145582231 pi_0002_0022
 - 0.000744213459678 pi_0002_0023 - 0.000496211684862 pi_0002_0024
 - 0.000248140463157 pi_0002_0025 >= 0
C_0092_cost_0003: cost_0092 >= 0
C_0092_cost_0004: cost_0092 >= 0
C_0092_cost_0005: cost_0092 >= 0
C_0092_cost_0006: cost_0092 >= 0
C_0092_cost_0007: cost_0092 >= 0
C_0092_cost_0008: cost_0092 >= 0
C_0092_cost_0009: cost_0092 >= 0
C_0092_cost_0010: cost_0092 >= 0
C_0092_cost_0011: cost_0092 >= 0
C_0092_cost_0012: cost_0092 >= 0
C_0092_cost_0013: cost_0092 >= 0
C_0092_cost_0014: cost_0092 >= 0
C_0092_cost_0015: cost_0092 >= 0
C_0092_cost_0016: cost_0092 >= 0
C_0092_cost_0017: cost_0092 >= 0
C_0092_cost_0018: cost_0092 >= 0
C_0092_cost_0019: cost_0092 >= 0
C_0092_cost_0020: cost_0092 >= 0
C_0092_cost_0021: cost_0092 >= 0
C_0092_cost_0022: cost_0092 >= 0
C_0092_cost_0023: cost_0092 >= 0
C_0092_cost_0024: cost_0092 >= 0
C_0092_cost_0025: cost_0092 >= 0
C_0092_cost_0026: cost_0092 - 0.0106666652041 pi_0026_0000 >= 0
C_0092_cost_0027: cost_0092 >= 0
C_0092_cost_0028: cost_0092 >= 0
C_0092_cost_0029: cost_0092 - 0.426666385001 pi_0029_0000 >= 0
C_0092_cost_0030: cost_0092 >= 0
C_0092_cost_0031: cost_0092 >= 0
C_0092_cost_0032: cost_0092 >= 0
C_0092_cost_0033: cost_0092 >= 0
C_0092_cost_0034: cost_0092 >= 0
C_0092_cost_0035: cost_0092 >= 0
C_0092_cost_0036: cost_0092 >= 0
C_0092_linear_0000: - act_0000 + xi_0092_0000 = 28
C_0092_linear_0001: - act_0001 + xi_0092_0001 = 24
C_0092_linear_0002: - act_0002 + xi_0092_0002 = 1249
C_0092_linear_0003: - act_0003 + xi_0092_0003 = 4
C_0092_linear_0004: - act_0004 + xi_0092_0004 = 2
C_0092_linear_0005: - act_0005 + xi_0092_0005 = 1
C_0092_linear_0006: - act_0006 + xi_0092_0006 = 0
C_0092_linear_0007: - act_0007 + xi_0092_0007 = 0
C_0092_linear_0008: - act_0008 + xi_0092_0008 = 1
C_0092_linear_0009: - act_0009 + xi_0092_0009 = 0
C_0092_linear_0010: - act_0010 + xi_0092_0010 = 0
C_0092_linear_0011: - act_0011 + xi_0092_0011 = 0
C_0092_linear_0012: - act_0012 + xi_0092_0012 = 0
C_0092_linear_0013: - act_0013 + xi_0092_0013 = 0
C_0092_linear_0014: - act_0014 + xi_0092_0014 = 1
C_0092_linear_0015: - act_0015 + xi_0092_0015 = 0
C_0092_linear_0016: - act_0016 + xi_0092_0016 = 0
C_0092_linear_0017: - act_0017 + xi_0092_0017 = 1
C_0092_linear_0018: - act_0018 + xi_0092_0018 = 0
C_0092_linear_0019: - act_0019 + xi_0092_0019 = 0
C_0092_linear_0020: - act_0020 + xi_0092_0020 = 0
C_0092_linear_0021: - act_0021 + xi_0092_0021 = 0
C_0092_linear_0022: - act_0022 + xi_0092_0022 = 0
C_0092_linear_0023: - act_0023 + xi_0092_0023 = 1
C_0092_linear_0024: - act_0024 + xi_0092_0024 = 0
C_0092_linear_0025: - act_0025 + xi_0092_0025 = 0
C_0092_linear_0026: - act_0026 + xi_0092_0026 = 0
C_0092_linear_0027: - act_0027 + xi_0092_0027 = 0
C_0092_linear_0028: - act_0028 + xi_0092_0028 = 1
C_0092_linear_0029: - act_0029 + xi_0092_0029 = 0
C_0092_linear_0030: - act_0030 + xi_0092_0030 = 0
C_0092_linear_0031: - act_0031 + xi_0092_0031 = 1
C_0092_linear_0032: - act_0032 + xi_0092_0032 = 0
C_0092_linear_0033: - act_0033 + xi_0092_0033 = 0
C_0092_linear_0034: - act_0034 + xi_0092_0034 = 1
C_0092_linear_0035: - act_0035 + xi_0092_0035 = 0
C_0092_linear_0036: - act_0036 + xi_0092_0036 = 0
C_0092_linear_0037: - act_0037 + xi_0092_0037 = 0
C_0092_linear_0038: - act_0038 + xi_0092_0038 = 0
C_0092_linear_0039: - act_0039 + xi_0092_0039 = 1
C_0092_loss_ge: - 10000 omg_0092 - 0.0111828930987 xi_0092_0000
 + 0.0316585861132 xi_0092_0001 + 0.000106039552982 xi_0092_0002
 + 0.2872356913 xi_0092_0003 + 0.013030358965 xi_0092_0004
 + 0.240120705533 xi_0092_0005 + 0.442580447937 xi_0092_0006
 - 0.375980671537 xi_0092_0007 + 0.392374151169 xi_0092_0008
 + 1.06701819784 xi_0092_0009 - 0.942756746323 xi_0092_0010
 + 0.412027349402 xi_0092_0011 + 0.570359951286 xi_0092_0012
 - 0.852905494999 xi_0092_0013 - 0.323418189169 xi_0092_0014
 + 0.252938924417 xi_0092_0015 - 0.0388599557068 xi_0092_0016
 - 0.020417849004 xi_0092_0017 - 0.119001175529 xi_0092_0018
 + 0.47399163059 xi_0092_0019 - 0.445604107063 xi_0092_0020
 - 0.0184582213876 xi_0092_0021 + 0.307589905785 xi_0092_0022
 + 0.444474821864 xi_0092_0023 - 0.187382383206 xi_0092_0024
 + 0.383302875585 xi_0092_0025 - 0.750161596334 xi_0092_0026
 - 1.33170117681 xi_0092_0027 + 0.0190658885385 xi_0092_0028
 - 0.745784276999 xi_0092_0029 - 0.516231038044 xi_0092_0030
 - 0.409255825925 xi_0092_0031 - 0.0994375517393 xi_0092_0032
 - 0.734256048841 xi_0092_0033 - 0.253933375138 xi_0092_0034
 - 0.256674950149 xi_0092_0035 - 0.732341101218 xi_0092_0036
 - 0.86707443001 xi_0092_0037 - 0.319117177314 xi_0092_0038
 + 0.0697086420108 xi_0092_0039 >= -9998.75705057
C_0092_loss_le: - 10000 omg_0092 - 0.0111828930987 xi_0092_0000
 + 0.0316585861132 xi_0092_0001 + 0.000106039552982 xi_0092_0002
 + 0.2872356913 xi_0092_0003 + 0.013030358965 xi_0092_0004
 + 0.240120705533 xi_0092_0005 + 0.442580447937 xi_0092_0006
 - 0.375980671537 xi_0092_0007 + 0.392374151169 xi_0092_0008
 + 1.06701819784 xi_0092_0009 - 0.942756746323 xi_0092_0010
 + 0.412027349402 xi_0092_0011 + 0.570359951286 xi_0092_0012
 - 0.852905494999 xi_0092_0013 - 0.323418189169 xi_0092_0014
 + 0.252938924417 xi_0092_0015 - 0.0388599557068 xi_0092_0016
 - 0.020417849004 xi_0092_0017 - 0.119001175529 xi_0092_0018
 + 0.47399163059 xi_0092_0019 - 0.445604107063 xi_0092_0020
 - 0.0184582213876 xi_0092_0021 + 0.307589905785 xi_0092_0022
 + 0.444474821864 xi_0092_0023 - 0.187382383206 xi_0092_0024
 + 0.383302875585 xi_0092_0025 - 0.750161596334 xi_0092_0026
 - 1.33170117681 xi_0092_0027 + 0.0190658885385 xi_0092_0028
 - 0.745784276999 xi_0092_0029 - 0.516231038044 xi_0092_0030
 - 0.409255825925 xi_0092_0031 - 0.0994375517393 xi_0092_0032
 - 0.734256048841 xi_0092_0033 - 0.253933375138 xi_0092_0034
 - 0.256674950149 xi_0092_0035 - 0.732341101218 xi_0092_0036
 - 0.86707443001 xi_0092_0037 - 0.319117177314 xi_0092_0038
 + 0.0697086420108 xi_0092_0039 <= 1.24294941651
C_0093_cost_0001: cost_0093 - 0.00034028953619 pi_0001_0000
 - 0.000172837669377 pi_0001_0001 >= 0
C_0093_cost_0002: cost_0093 - 0.00120995523684 pi_0002_0000
 - 0.00116330912691 pi_0002_0001 - 0.00111667196584 pi_0002_0002
 - 0.00107004372848 pi_0002_0003 - 0.00102342438971 pi_0002_0004
 - 0.000976813924453 pi_0002_0005 - 0.000930212307692 pi_0002_0006
 - 0.000883619514437 pi_0002_0007 - 0.000837035519749 pi_0002_0008
 - 0.00079046029873 pi_0002_0009 - 0.000743893826526 pi_0002_0010
 - 0.000697336078328 pi_0002_0011 - 0.00065078702937 pi_0002_0012
 - 0.00060424665493 pi_0002_0013 - 0.000557714930329 pi_0002_0014
 - 0.000511191830935 pi_0002_0015 - 0.000464677332156 pi_0002_0016
 - 0.000418171409446 pi_0002_0017 - 0.000371674038304 pi_0002_0018
 - 0.000325185194273 pi_0002_0019 - 0.000278704852938 pi_0002_0020
 - 0.000232232989931 pi_0002_0021 - 0.000185769580927 pi_0002_0022
 - 0.000139314601645 pi_0002_0023 - 9.28680278499e-05 pi_0002_0024
 - 4.64298353506e-05 pi_0002_0025 >= 0
C_0093_cost_0003: cost_0093 >= 0
C_0093_cost_0004: cost_0093 >= 0
C_0093_cost_0005: cost_0093 >= 0
C_0093_cost_0006: cost_0093 >= 0
C_0093_cost_0007: cost_0093 >= 0
C_0093_cost_0008: cost_0093 >= 0
C_0093_cost_0009: cost_0093 >= 0
C_0093_cost_0010: cost_0093 >= 0
C_0093_cost_0011: cost_0093 >= 0
C_0093_cost_0012: cost_0093 >= 0
C_0093_cost_0013: cost_0093 >= 0
C_0093_cost_0014: cost_0093 >= 0
C_0093_cost_0015: cost_0093 >= 0
C_0093_cost_0016: cost_0093 >= 0
C_0093_cost_0017: cost_0093 >= 0
C_0093_cost_0018: cost_0093 >= 0
C_0093_cost_0019: cost_0093 >= 0
C_0093_cost_0020: cost_0093 >= 0
C_0093_cost_0021: cost_0093 >= 0
C_0093_cost_0022: cost_0093 >= 0
C_0093_cost_0023: cost_0093 >= 0
C_0093_cost_0024: cost_0093 >= 0
C_0093_cost_0025: cost_0093 >= 0
C_0093_cost_0026: cost_0093 - 0.0106666652041 pi_0026_0000 >= 0
C_0093_cost_0027: cost_0093 >= 0
C_0093_cost_0028: cost_0093 >= 0
C_0093_cost_0029: cost_0093 - 0.426666385001 pi_0029_0000 >= 0
C_0093_cost_0030: cost_0093 >= 0
C_0093_cost_0031: cost_0093 >= 0
C_0093_cost_0032: cost_0093 >= 0
C_0093_cost_0033: cost_0093 >= 0
C_0093_cost_0034: cost_0093 >= 0
C_0093_cost_0035: cost_0093 >= 0
C_0093_cost_0036: cost_0093 >= 0
C_0093_linear_0000: - act_0000 + xi_0093_0000 = 24
C_0093_linear_0001: - act_0001 + xi_0093_0001 = 72
C_0093_linear_0002: - act_0002 + xi_0093_0002 = 5595
C_0093_linear_0003: - act_0003 + xi_0093_0003 = 2
C_0093_linear_0004: - act_0004 + xi_0093_0004 = 2
C_0093_linear_0005: - act_0005 + xi_0093_0005 = 1
C_0093_linear_0006: - act_0006 + xi_0093_0006 = 0
C_0093_linear_0007: - act_0007 + xi_0093_0007 = 0
C_0093_linear_0008: - act_0008 + xi_0093_0008 = 1
C_0093_linear_0009: - act_0009 + xi_0093_0009 = 0
C_0093_linear_0010: - act_0010 + xi_0093_0010 = 0
C_0093_linear_0011: - act_0011 + xi_0093_0011 = 0
C_0093_linear_0012: - act_0012 + xi_0093_0012 = 0
C_0093_linear_0013: - act_0013 + xi_0093_0013 = 0
C_0093_linear_0014: - act_0014 + xi_0093_0014 = 1
C_0093_linear_0015: - act_0015 + xi_0093_0015 = 0
C_0093_linear_0016: - act_0016 + xi_0093_0016 = 0
C_0093_linear_0017: - act_0017 + xi_0093_0017 = 1
C_0093_linear_0018: - act_0018 + xi_0093_0018 = 0
C_0093_linear_0019: - act_0019 + xi_0093_0019 = 0
C_0093_linear_0020: - act_0020 + xi_0093_0020 = 1
C_0093_linear_0021: - act_0021 + xi_0093_0021 = 0
C_0093_linear_0022: - act_0022 + xi_0093_0022 = 0
C_0093_linear_0023: - act_0023 + xi_0093_0023 = 0
C_0093_linear_0024: - act_0024 + xi_0093_0024 = 0
C_0093_linear_0025: - act_0025 + xi_0093_0025 = 0
C_0093_linear_0026: - act_0026 + xi_0093_0026 = 0
C_0093_linear_0027: - act_0027 + xi_0093_0027 = 0
C_0093_linear_0028: - act_0028 + xi_0093_0028 = 0
C_0093_linear_0029: - act_0029 + xi_0093_0029 = 0
C_0093_linear_0030: - act_0030 + xi_0093_0030 = 1
C_0093_linear_0031: - act_0031 + xi_0093_0031 = 0
C_0093_linear_0032: - act_0032 + xi_0093_0032 = 1
C_0093_linear_0033: - act_0033 + xi_0093_0033 = 0
C_0093_linear_0034: - act_0034 + xi_0093_0034 = 0
C_0093_linear_0035: - act_0035 + xi_0093_0035 = 1
C_0093_linear_0036: - act_0036 + xi_0093_0036 = 0
C_0093_linear_0037: - act_0037 + xi_0093_0037 = 0
C_0093_linear_0038: - act_0038 + xi_0093_0038 = 0
C_0093_linear_0039: - act_0039 + xi_0093_0039 = 1
C_0093_loss_ge: - 10000 omg_0093 - 0.0111828930987 xi_0093_0000
 + 0.0316585861132 xi_0093_0001 + 0.000106039552982 xi_0093_0002
 + 0.2872356913 xi_0093_0003 + 0.013030358965 xi_0093_0004
 + 0.240120705533 xi_0093_0005 + 0.442580447937 xi_0093_0006
 - 0.375980671537 xi_0093_0007 + 0.392374151169 xi_0093_0008
 + 1.06701819784 xi_0093_0009 - 0.942756746323 xi_0093_0010
 + 0.412027349402 xi_0093_0011 + 0.570359951286 xi_0093_0012
 - 0.852905494999 xi_0093_0013 - 0.323418189169 xi_0093_0014
 + 0.252938924417 xi_0093_0015 - 0.0388599557068 xi_0093_0016
 - 0.020417849004 xi_0093_0017 - 0.119001175529 xi_0093_0018
 + 0.47399163059 xi_0093_0019 - 0.445604107063 xi_0093_0020
 - 0.0184582213876 xi_0093_0021 + 0.307589905785 xi_0093_0022
 + 0.444474821864 xi_0093_0023 - 0.187382383206 xi_0093_0024
 + 0.383302875585 xi_0093_0025 - 0.750161596334 xi_0093_0026
 - 1.33170117681 xi_0093_0027 + 0.0190658885385 xi_0093_0028
 - 0.745784276999 xi_0093_0029 - 0.516231038044 xi_0093_0030
 - 0.409255825925 xi_0093_0031 - 0.0994375517393 xi_0093_0032
 - 0.734256048841 xi_0093_0033 - 0.253933375138 xi_0093_0034
 - 0.256674950149 xi_0093_0035 - 0.732341101218 xi_0093_0036
 - 0.86707443001 xi_0093_0037 - 0.319117177314 xi_0093_0038
 + 0.0697086420108 xi_0093_0039 >= -9998.75705057
C_0093_loss_le: - 10000 omg_0093 - 0.0111828930987 xi_0093_0000
 + 0.0316585861132 xi_0093_0001 + 0.000106039552982 xi_0093_0002
 + 0.2872356913 xi_0093_0003 + 0.013030358965 xi_0093_0004
 + 0.240120705533 xi_0093_0005 + 0.442580447937 xi_0093_0006
 - 0.375980671537 xi_0093_0007 + 0.392374151169 xi_0093_0008
 + 1.06701819784 xi_0093_0009 - 0.942756746323 xi_0093_0010
 + 0.412027349402 xi_0093_0011 + 0.570359951286 xi_0093_0012
 - 0.852905494999 xi_0093_0013 - 0.323418189169 xi_0093_0014
 + 0.252938924417 xi_0093_0015 - 0.0388599557068 xi_0093_0016
 - 0.020417849004 xi_0093_0017 - 0.119001175529 xi_0093_0018
 + 0.47399163059 xi_0093_0019 - 0.445604107063 xi_0093_0020
 - 0.0184582213876 xi_0093_0021 + 0.307589905785 xi_0093_0022
 + 0.444474821864 xi_0093_0023 - 0.187382383206 xi_0093_0024
 + 0.383302875585 xi_0093_0025 - 0.750161596334 xi_0093_0026
 - 1.33170117681 xi_0093_0027 + 0.0190658885385 xi_0093_0028
 - 0.745784276999 xi_0093_0029 - 0.516231038044 xi_0093_0030
 - 0.409255825925 xi_0093_0031 - 0.0994375517393 xi_0093_0032
 - 0.734256048841 xi_0093_0033 - 0.253933375138 xi_0093_0034
 - 0.256674950149 xi_0093_0035 - 0.732341101218 xi_0093_0036
 - 0.86707443001 xi_0093_0037 - 0.319117177314 xi_0093_0038
 + 0.0697086420108 xi_0093_0039 <= 1.24294941651
C_0094_cost_0001: cost_0094 - 0.0246929068628 pi_0001_0000
 - 0.0123216428276 pi_0001_0001 >= 0
C_0094_cost_0002: cost_0094 - 0.000155890649176 pi_0002_0000
 - 0.000149876235197 pi_0002_0001 - 0.000143863306726 pi_0002_0002
 - 0.000137851864275 pi_0002_0003 - 0.000131841908359 pi_0002_0004
 - 0.00012583343949 pi_0002_0005 - 0.000119826458179 pi_0002_0006
 - 0.000113820964937 pi_0002_0007 - 0.000107816960274 pi_0002_0008
 - 0.0001018144447 pi_0002_0009 - 9.58134187237e-05 pi_0002_0010
 - 8.9813882852e-05 pi_0002_0011 - 8.38158375922e-05 pi_0002_0012
 - 7.78192834504e-05 pi_0002_0013 - 7.1824220932e-05 pi_0002_0014
 - 6.5830650541e-05 pi_0002_0015 - 5.98385727811e-05 pi_0002_0016
 - 5.38479881549e-05 pi_0002_0017 - 4.7858897164e-05 pi_0002_0018
 - 4.18713003092e-05 pi_0002_0019 - 3.58851980903e-05 pi_0002_0020
 - 2.99005910063e-05 pi_0002_0021 - 2.3917479555e-05 pi_0002_0022
 - 1.79358642333e-05 pi_0002_0023 - 1.19557455371e-05 pi_0002_0024
 - 5.97712396144e-06 pi_0002_0025 >= 0
C_0094_cost_0003: cost_0094 >= 0
C_0094_cost_0004: cost_0094 >= 0
C_0094_cost_0005: cost_0094 >= 0
C_0094_cost_0006: cost_0094 >= 0
C_0094_cost_0007: cost_0094 >= 0
C_0094_cost_0008: cost_0094 >= 0
C_0094_cost_0009: cost_0094 >= 0
C_0094_cost_0010: cost_0094 >= 0
C_0094_cost_0011: cost_0094 >= 0
C_0094_cost_0012: cost_0094 >= 0
C_0094_cost_0013: cost_0094 >= 0
C_0094_cost_0014: cost_0094 >= 0
C_0094_cost_0015: cost_0094 >= 0
C_0094_cost_0016: cost_0094 >= 0
C_0094_cost_0017: cost_0094 >= 0
C_0094_cost_0018: cost_0094 >= 0
C_0094_cost_0019: cost_0094 >= 0
C_0094_cost_0020: cost_0094 >= 0
C_0094_cost_0021: cost_0094 >= 0
C_0094_cost_0022: cost_0094 >= 0
C_0094_cost_0023: cost_0094 >= 0
C_0094_cost_0024: cost_0094 >= 0
C_0094_cost_0025: cost_0094 >= 0
C_0094_cost_0026: cost_0094 - 0.0106666652041 pi_0026_0000 >= 0
C_0094_cost_0027: cost_0094 >= 0
C_0094_cost_0028: cost_0094 >= 0
C_0094_cost_0029: cost_0094 - 0.426666385001 pi_0029_0000 >= 0
C_0094_cost_0030: cost_0094 >= 0
C_0094_cost_0031: cost_0094 >= 0
C_0094_cost_0032: cost_0094 >= 0
C_0094_cost_0033: cost_0094 >= 0
C_0094_cost_0034: cost_0094 >= 0
C_0094_cost_0035: cost_0094 >= 0
C_0094_cost_0036: cost_0094 >= 0
C_0094_linear_0000: - act_0000 + xi_0094_0000 = 47
C_0094_linear_0001: - act_0001 + xi_0094_0001 = 36
C_0094_linear_0002: - act_0002 + xi_0094_0002 = 12612
C_0094_linear_0003: - act_0003 + xi_0094_0003 = 1
C_0094_linear_0004: - act_0004 + xi_0094_0004 = 4
C_0094_linear_0005: - act_0005 + xi_0094_0005 = 1
C_0094_linear_0006: - act_0006 + xi_0094_0006 = 1
C_0094_linear_0007: - act_0007 + xi_0094_0007 = 1
C_0094_linear_0008: - act_0008 + xi_0094_0008 = 1
C_0094_linear_0009: - act_0009 + xi_0094_0009 = 0
C_0094_linear_0010: - act_0010 + xi_0094_0010 = 0
C_0094_linear_0011: - act_0011 + xi_0094_0011 = 0
C_0094_linear_0012: - act_0012 + xi_0094_0012 = 0
C_0094_linear_0013: - act_0013 + xi_0094_0013 = 0
C_0094_linear_0014: - act_0014 + xi_0094_0014 = 0
C_0094_linear_0015: - act_0015 + xi_0094_0015 = 0
C_0094_linear_0016: - act_0016 + xi_0094_0016 = 0
C_0094_linear_0017: - act_0017 + xi_0094_0017 = 1
C_0094_linear_0018: - act_0018 + xi_0094_0018 = 0
C_0094_linear_0019: - act_0019 + xi_0094_0019 = 1
C_0094_linear_0020: - act_0020 + xi_0094_0020 = 0
C_0094_linear_0021: - act_0021 + xi_0094_0021 = 0
C_0094_linear_0022: - act_0022 + xi_0094_0022 = 0
C_0094_linear_0023: - act_0023 + xi_0094_0023 = 0
C_0094_linear_0024: - act_0024 + xi_0094_0024 = 0
C_0094_linear_0025: - act_0025 + xi_0094_0025 = 0
C_0094_linear_0026: - act_0026 + xi_0094_0026 = 0
C_0094_linear_0027: - act_0027 + xi_0094_0027 = 0
C_0094_linear_0028: - act_0028 + xi_0094_0028 = 0
C_0094_linear_0029: - act_0029 + xi_0094_0029 = 0
C_0094_linear_0030: - act_0030 + xi_0094_0030 = 1
C_0094_linear_0031: - act_0031 + xi_0094_0031 = 0
C_0094_linear_0032: - act_0032 + xi_0094_0032 = 1
C_0094_linear_0033: - act_0033 + xi_0094_0033 = 0
C_0094_linear_0034: - act_0034 + xi_0094_0034 = 0
C_0094_linear_0035: - act_0035 + xi_0094_0035 = 1
C_0094_linear_0036: - act_0036 + xi_0094_0036 = 0
C_0094_linear_0037: - act_0037 + xi_0094_0037 = 0
C_0094_linear_0038: - act_0038 + xi_0094_0038 = 1
C_0094_linear_0039: - act_0039 + xi_0094_0039 = 1
C_0094_loss_ge: - 10000 omg_0094 - 0.0111828930987 xi_0094_0000
 + 0.0316585861132 xi_0094_0001 + 0.000106039552982 xi_0094_0002
 + 0.2872356913 xi_0094_0003 + 0.013030358965 xi_0094_0004
 + 0.240120705533 xi_0094_0005 + 0.442580447937 xi_0094_0006
 - 0.375980671537 xi_0094_0007 + 0.392374151169 xi_0094_0008
 + 1.06701819784 xi_0094_0009 - 0.942756746323 xi_0094_0010
 + 0.412027349402 xi_0094_0011 + 0.570359951286 xi_0094_0012
 - 0.852905494999 xi_0094_0013 - 0.323418189169 xi_0094_0014
 + 0.252938924417 xi_0094_0015 - 0.0388599557068 xi_0094_0016
 - 0.020417849004 xi_0094_0017 - 0.119001175529 xi_0094_0018
 + 0.47399163059 xi_0094_0019 - 0.445604107063 xi_0094_0020
 - 0.0184582213876 xi_0094_0021 + 0.307589905785 xi_0094_0022
 + 0.444474821864 xi_0094_0023 - 0.187382383206 xi_0094_0024
 + 0.383302875585 xi_0094_0025 - 0.750161596334 xi_0094_0026
 - 1.33170117681 xi_0094_0027 + 0.0190658885385 xi_0094_0028
 - 0.745784276999 xi_0094_0029 - 0.516231038044 xi_0094_0030
 - 0.409255825925 xi_0094_0031 - 0.0994375517393 xi_0094_0032
 - 0.734256048841 xi_0094_0033 - 0.253933375138 xi_0094_0034
 - 0.256674950149 xi_0094_0035 - 0.732341101218 xi_0094_0036
 - 0.86707443001 xi_0094_0037 - 0.319117177314 xi_0094_0038
 + 0.0697086420108 xi_0094_0039 >= -9998.75705057
C_0094_loss_le: - 10000 omg_0094 - 0.0111828930987 xi_0094_0000
 + 0.0316585861132 xi_0094_0001 + 0.000106039552982 xi_0094_0002
 + 0.2872356913 xi_0094_0003 + 0.013030358965 xi_0094_0004
 + 0.240120705533 xi_0094_0005 + 0.442580447937 xi_0094_0006
 - 0.375980671537 xi_0094_0007 + 0.392374151169 xi_0094_0008
 + 1.06701819784 xi_0094_0009 - 0.942756746323 xi_0094_0010
 + 0.412027349402 xi_0094_0011 + 0.570359951286 xi_0094_0012
 - 0.852905494999 xi_0094_0013 - 0.323418189169 xi_0094_0014
 + 0.252938924417 xi_0094_0015 - 0.0388599557068 xi_0094_0016
 - 0.020417849004 xi_0094_0017 - 0.119001175529 xi_0094_0018
 + 0.47399163059 xi_0094_0019 - 0.445604107063 xi_0094_0020
 - 0.0184582213876 xi_0094_0021 + 0.307589905785 xi_0094_0022
 + 0.444474821864 xi_0094_0023 - 0.187382383206 xi_0094_0024
 + 0.383302875585 xi_0094_0025 - 0.750161596334 xi_0094_0026
 - 1.33170117681 xi_0094_0027 + 0.0190658885385 xi_0094_0028
 - 0.745784276999 xi_0094_0029 - 0.516231038044 xi_0094_0030
 - 0.409255825925 xi_0094_0031 - 0.0994375517393 xi_0094_0032
 - 0.734256048841 xi_0094_0033 - 0.253933375138 xi_0094_0034
 - 0.256674950149 xi_0094_0035 - 0.732341101218 xi_0094_0036
 - 0.86707443001 xi_0094_0037 - 0.319117177314 xi_0094_0038
 + 0.0697086420108 xi_0094_0039 <= 1.24294941651
C_0095_cost_0001: cost_0095 - 0.0873361949203 pi_0001_0000
 - 0.0442906580929 pi_0001_0001 >= 0
C_0095_cost_0002: cost_0095 - 0.000904266508874 pi_0002_0000
 - 0.000869348875535 pi_0002_0001 - 0.000834442271397 pi_0002_0002
 - 0.000799546699355 pi_0002_0003 - 0.000764662162303 pi_0002_0004
 - 0.000729788663129 pi_0002_0005 - 0.000694926204716 pi_0002_0006
 - 0.000660074789944 pi_0002_0007 - 0.000625234421688 pi_0002_0008
 - 0.000590405102819 pi_0002_0009 - 0.000555586836204 pi_0002_0010
 - 0.000520779624706 pi_0002_0011 - 0.000485983471182 pi_0002_0012
 - 0.000451198378487 pi_0002_0013 - 0.000416424349471 pi_0002_0014
 - 0.00038166138698 pi_0002_0015 - 0.000346909493856 pi_0002_0016
 - 0.000312168672935 pi_0002_0017 - 0.000277438927052 pi_0002_0018
 - 0.000242720259036 pi_0002_0019 - 0.000208012671712 pi_0002_0020
 - 0.000173316167902 pi_0002_0021 - 0.000138630750421 pi_0002_0022
 - 0.000103956422084 pi_0002_0023 - 6.92931856985e-05 pi_0002_0024
 - 3.46410440704e-05 pi_0002_0025 >= 0
C_0095_cost_0003: cost_0095 >= 0
C_0095_cost_0004: cost_0095 >= 0
C_0095_cost_0005: cost_0095 >= 0
C_0095_cost_0006: cost_0095 >= 0
C_0095_cost_0007: cost_0095 >= 0
C_0095_cost_0008: cost_0095 >= 0
C_0095_cost_0009: cost_0095 >= 0
C_0095_cost_0010: cost_0095 >= 0
C_0095_cost_0011: cost_0095 >= 0
C_0095_cost_0012: cost_0095 >= 0
C_0095_cost_0013: cost_0095 >= 0
C_0095_cost_0014: cost_0095 >= 0
C_0095_cost_0015: cost_0095 >= 0
C_0095_cost_0016: cost_0095 >= 0
C_0095_cost_0017: cost_0095 >= 0
C_0095_cost_0018: cost_0095 >= 0
C_0095_cost_0019: cost_0095 >= 0
C_0095_cost_0020: cost_0095 >= 0
C_0095_cost_0021: cost_0095 >= 0
C_0095_cost_0022: cost_0095 >= 0
C_0095_cost_0023: cost_0095 >= 0
C_0095_cost_0024: cost_0095 >= 0
C_0095_cost_0025: cost_0095 >= 0
C_0095_cost_0026: cost_0095 - 0.0106666652041 pi_0026_0000 >= 0
C_0095_cost_0027: cost_0095 >= 0
C_0095_cost_0028: cost_0095 >= 0
C_0095_cost_0029: cost_0095 - 0.426666385001 pi_0029_0000 >= 0
C_0095_cost_0030: cost_0095 >= 0
C_0095_cost_0031: cost_0095 >= 0
C_0095_cost_0032: cost_0095 >= 0
C_0095_cost_0033: cost_0095 >= 0
C_0095_cost_0034: cost_0095 >= 0
C_0095_cost_0035: cost_0095 >= 0
C_0095_cost_0036: cost_0095 >= 0
C_0095_linear_0000: - act_0000 + xi_0095_0000 = 24
C_0095_linear_0001: - act_0001 + xi_0095_0001 = 12
C_0095_linear_0002: - act_0002 + xi_0095_0002 = 7472
C_0095_linear_0003: - act_0003 + xi_0095_0003 = 1
C_0095_linear_0004: - act_0004 + xi_0095_0004 = 2
C_0095_linear_0005: - act_0005 + xi_0095_0005 = 1
C_0095_linear_0006: - act_0006 + xi_0095_0006 = 0
C_0095_linear_0007: - act_0007 + xi_0095_0007 = 0
C_0095_linear_0008: - act_0008 + xi_0095_0008 = 1
C_0095_linear_0009: - act_0009 + xi_0095_0009 = 0
C_0095_linear_0010: - act_0010 + xi_0095_0010 = 0
C_0095_linear_0011: - act_0011 + xi_0095_0011 = 0
C_0095_linear_0012: - act_0012 + xi_0095_0012 = 0
C_0095_linear_0013: - act_0013 + xi_0095_0013 = 0
C_0095_linear_0014: - act_0014 + xi_0095_0014 = 0
C_0095_linear_0015: - act_0015 + xi_0095_0015 = 1
C_0095_linear_0016: - act_0016 + xi_0095_0016 = 1
C_0095_linear_0017: - act_0017 + xi_0095_0017 = 0
C_0095_linear_0018: - act_0018 + xi_0095_0018 = 0
C_0095_linear_0019: - act_0019 + xi_0095_0019 = 0
C_0095_linear_0020: - act_0020 + xi_0095_0020 = 0
C_0095_linear_0021: - act_0021 + xi_0095_0021 = 0
C_0095_linear_0022: - act_0022 + xi_0095_0022 = 0
C_0095_linear_0023: - act_0023 + xi_0095_0023 = 1
C_0095_linear_0024: - act_0024 + xi_0095_0024 = 0
C_0095_linear_0025: - act_0025 + xi_0095_0025 = 0
C_0095_linear_0026: - act_0026 + xi_0095_0026 = 0
C_0095_linear_0027: - act_0027 + xi_0095_0027 = 0
C_0095_linear_0028: - act_0028 + xi_0095_0028 = 0
C_0095_linear_0029: - act_0029 + xi_0095_0029 = 0
C_0095_linear_0030: - act_0030 + xi_0095_0030 = 1
C_0095_linear_0031: - act_0031 + xi_0095_0031 = 0
C_0095_linear_0032: - act_0032 + xi_0095_0032 = 1
C_0095_linear_0033: - act_0033 + xi_0095_0033 = 0
C_0095_linear_0034: - act_0034 + xi_0095_0034 = 1
C_0095_linear_0035: - act_0035 + xi_0095_0035 = 0
C_0095_linear_0036: - act_0036 + xi_0095_0036 = 0
C_0095_linear_0037: - act_0037 + xi_0095_0037 = 0
C_0095_linear_0038: - act_0038 + xi_0095_0038 = 0
C_0095_linear_0039: - act_0039 + xi_0095_0039 = 0
C_0095_loss_ge: - 10000 omg_0095 - 0.0111828930987 xi_0095_0000
 + 0.0316585861132 xi_0095_0001 + 0.000106039552982 xi_0095_0002
 + 0.2872356913 xi_0095_0003 + 0.013030358965 xi_0095_0004
 + 0.240120705533 xi_0095_0005 + 0.442580447937 xi_0095_0006
 - 0.375980671537 xi_0095_0007 + 0.392374151169 xi_0095_0008
 + 1.06701819784 xi_0095_0009 - 0.942756746323 xi_0095_0010
 + 0.412027349402 xi_0095_0011 + 0.570359951286 xi_0095_0012
 - 0.852905494999 xi_0095_0013 - 0.323418189169 xi_0095_0014
 + 0.252938924417 xi_0095_0015 - 0.0388599557068 xi_0095_0016
 - 0.020417849004 xi_0095_0017 - 0.119001175529 xi_0095_0018
 + 0.47399163059 xi_0095_0019 - 0.445604107063 xi_0095_0020
 - 0.0184582213876 xi_0095_0021 + 0.307589905785 xi_0095_0022
 + 0.444474821864 xi_0095_0023 - 0.187382383206 xi_0095_0024
 + 0.383302875585 xi_0095_0025 - 0.750161596334 xi_0095_0026
 - 1.33170117681 xi_0095_0027 + 0.0190658885385 xi_0095_0028
 - 0.745784276999 xi_0095_0029 - 0.516231038044 xi_0095_0030
 - 0.409255825925 xi_0095_0031 - 0.0994375517393 xi_0095_0032
 - 0.734256048841 xi_0095_0033 - 0.253933375138 xi_0095_0034
 - 0.256674950149 xi_0095_0035 - 0.732341101218 xi_0095_0036
 - 0.86707443001 xi_0095_0037 - 0.319117177314 xi_0095_0038
 + 0.0697086420108 xi_0095_0039 >= -9998.75705057
C_0095_loss_le: - 10000 omg_0095 - 0.0111828930987 xi_0095_0000
 + 0.0316585861132 xi_0095_0001 + 0.000106039552982 xi_0095_0002
 + 0.2872356913 xi_0095_0003 + 0.013030358965 xi_0095_0004
 + 0.240120705533 xi_0095_0005 + 0.442580447937 xi_0095_0006
 - 0.375980671537 xi_0095_0007 + 0.392374151169 xi_0095_0008
 + 1.06701819784 xi_0095_0009 - 0.942756746323 xi_0095_0010
 + 0.412027349402 xi_0095_0011 + 0.570359951286 xi_0095_0012
 - 0.852905494999 xi_0095_0013 - 0.323418189169 xi_0095_0014
 + 0.252938924417 xi_0095_0015 - 0.0388599557068 xi_0095_0016
 - 0.020417849004 xi_0095_0017 - 0.119001175529 xi_0095_0018
 + 0.47399163059 xi_0095_0019 - 0.445604107063 xi_0095_0020
 - 0.0184582213876 xi_0095_0021 + 0.307589905785 xi_0095_0022
 + 0.444474821864 xi_0095_0023 - 0.187382383206 xi_0095_0024
 + 0.383302875585 xi_0095_0025 - 0.750161596334 xi_0095_0026
 - 1.33170117681 xi_0095_0027 + 0.0190658885385 xi_0095_0028
 - 0.745784276999 xi_0095_0029 - 0.516231038044 xi_0095_0030
 - 0.409255825925 xi_0095_0031 - 0.0994375517393 xi_0095_0032
 - 0.734256048841 xi_0095_0033 - 0.253933375138 xi_0095_0034
 - 0.256674950149 xi_0095_0035 - 0.732341101218 xi_0095_0036
 - 0.86707443001 xi_0095_0037 - 0.319117177314 xi_0095_0038
 + 0.0697086420108 xi_0095_0039 <= 1.24294941651
C_0096_cost_0001: cost_0096 - 0.0275526923386 pi_0001_0000
 - 0.0126479830791 pi_0001_0001 >= 0
C_0096_cost_0002: cost_0096 - 0.00134063299138 pi_0002_0000
 - 0.00128882010405 pi_0002_0001 - 0.00123702750951 pi_0002_0002
 - 0.00118525517188 pi_0002_0003 - 0.00113350305527 pi_0002_0004
 - 0.00108177112384 pi_0002_0005 - 0.00103005934174 pi_0002_0006
 - 0.00097836767316 pi_0002_0007 - 0.00092669608228 pi_0002_0008
 - 0.000875044533306 pi_0002_0009 - 0.000823412990458 pi_0002_0010
 - 0.000771801417969 pi_0002_0011 - 0.00072020978009 pi_0002_0012
 - 0.000668638041084 pi_0002_0013 - 0.000617086165232 pi_0002_0014
 - 0.000565554116828 pi_0002_0015 - 0.000514041860183 pi_0002_0016
 - 0.000462549359624 pi_0002_0017 - 0.000411076579491 pi_0002_0018
 - 0.000359623484142 pi_0002_0019 - 0.00030819003795 pi_0002_0020
 - 0.000256776205305 pi_0002_0021 - 0.00020538195061 pi_0002_0022
 - 0.000154007238287 pi_0002_0023 - 0.000102652032772 pi_0002_0024
 - 5.13162985204e-05 pi_0002_0025 >= 0
C_0096_cost_0003: cost_0096 >= 0
C_0096_cost_0004: cost_0096 >= 0
C_0096_cost_0005: cost_0096 >= 0
C_0096_cost_0006: cost_0096 >= 0
C_0096_cost_0007: cost_0096 >= 0
C_0096_cost_0008: cost_0096 >= 0
C_0096_cost_0009: cost_0096 >= 0
C_0096_cost_0010: cost_0096 >= 0
C_0096_cost_0011: cost_0096 >= 0
C_0096_cost_0012: cost_0096 >= 0
C_0096_cost_0013: cost_0096 >= 0
C_0096_cost_0014: cost_0096 >= 0
C_0096_cost_0015: cost_0096 >= 0
C_0096_cost_0016: cost_0096 >= 0
C_0096_cost_0017: cost_0096 >= 0
C_0096_cost_0018: cost_0096 >= 0
C_0096_cost_0019: cost_0096 >= 0
C_0096_cost_0020: cost_0096 >= 0
C_0096_cost_0021: cost_0096 >= 0
C_0096_cost_0022: cost_0096 >= 0
C_0096_cost_0023: cost_0096 >= 0
C_0096_cost_0024: cost_0096 >= 0
C_0096_cost_0025: cost_0096 >= 0
C_0096_cost_0026: cost_0096 - 0.0106666652041 pi_0026_0000 >= 0
C_0096_cost_0027: cost_0096 >= 0
C_0096_cost_0028: cost_0096 >= 0
C_0096_cost_0029: cost_0096 - 0.426666385001 pi_0029_0000 >= 0
C_0096_cost_0030: cost_0096 >= 0
C_0096_cost_0031: cost_0096 >= 0
C_0096_cost_0032: cost_0096 >= 0
C_0096_cost_0033: cost_0096 >= 0
C_0096_cost_0034: cost_0096 >= 0
C_0096_cost_0035: cost_0096 >= 0
C_0096_cost_0036: cost_0096 >= 0
C_0096_linear_0000: - act_0000 + xi_0096_0000 = 28
C_0096_linear_0001: - act_0001 + xi_0096_0001 = 30
C_0096_linear_0002: - act_0002 + xi_0096_0002 = 5234
C_0096_linear_0003: - act_0003 + xi_0096_0003 = 4
C_0096_linear_0004: - act_0004 + xi_0096_0004 = 2
C_0096_linear_0005: - act_0005 + xi_0096_0005 = 2
C_0096_linear_0006: - act_0006 + xi_0096_0006 = 0
C_0096_linear_0007: - act_0007 + xi_0096_0007 = 0
C_0096_linear_0008: - act_0008 + xi_0096_0008 = 1
C_0096_linear_0009: - act_0009 + xi_0096_0009 = 0
C_0096_linear_0010: - act_0010 + xi_0096_0010 = 1
C_0096_linear_0011: - act_0011 + xi_0096_0011 = 0
C_0096_linear_0012: - act_0012 + xi_0096_0012 = 0
C_0096_linear_0013: - act_0013 + xi_0096_0013 = 0
C_0096_linear_0014: - act_0014 + xi_0096_0014 = 1
C_0096_linear_0015: - act_0015 + xi_0096_0015 = 0
C_0096_linear_0016: - act_0016 + xi_0096_0016 = 1
C_0096_linear_0017: - act_0017 + xi_0096_0017 = 1
C_0096_linear_0018: - act_0018 + xi_0096_0018 = 0
C_0096_linear_0019: - act_0019 + xi_0096_0019 = 0
C_0096_linear_0020: - act_0020 + xi_0096_0020 = 0
C_0096_linear_0021: - act_0021 + xi_0096_0021 = 0
C_0096_linear_0022: - act_0022 + xi_0096_0022 = 0
C_0096_linear_0023: - act_0023 + xi_0096_0023 = 1
C_0096_linear_0024: - act_0024 + xi_0096_0024 = 0
C_0096_linear_0025: - act_0025 + xi_0096_0025 = 0
C_0096_linear_0026: - act_0026 + xi_0096_0026 = 0
C_0096_linear_0027: - act_0027 + xi_0096_0027 = 0
C_0096_linear_0028: - act_0028 + xi_0096_0028 = 0
C_0096_linear_0029: - act_0029 + xi_0096_0029 = 0
C_0096_linear_0030: - act_0030 + xi_0096_0030 = 1
C_0096_linear_0031: - act_0031 + xi_0096_0031 = 0
C_0096_linear_0032: - act_0032 + xi_0096_0032 = 1
C_0096_linear_0033: - act_0033 + xi_0096_0033 = 0
C_0096_linear_0034: - act_0034 + xi_0096_0034 = 1
C_0096_linear_0035: - act_0035 + xi_0096_0035 = 0
C_0096_linear_0036: - act_0036 + xi_0096_0036 = 0
C_0096_linear_0037: - act_0037 + xi_0096_0037 = 0
C_0096_linear_0038: - act_0038 + xi_0096_0038 = 0
C_0096_linear_0039: - act_0039 + xi_0096_0039 = 1
C_0096_loss_ge: - 10000 omg_0096 - 0.0111828930987 xi_0096_0000
 + 0.0316585861132 xi_0096_0001 + 0.000106039552982 xi_0096_0002
 + 0.2872356913 xi_0096_0003 + 0.013030358965 xi_0096_0004
 + 0.240120705533 xi_0096_0005 + 0.442580447937 xi_0096_0006
 - 0.375980671537 xi_0096_0007 + 0.392374151169 xi_0096_0008
 + 1.06701819784 xi_0096_0009 - 0.942756746323 xi_0096_0010
 + 0.412027349402 xi_0096_0011 + 0.570359951286 xi_0096_0012
 - 0.852905494999 xi_0096_0013 - 0.323418189169 xi_0096_0014
 + 0.252938924417 xi_0096_0015 - 0.0388599557068 xi_0096_0016
 - 0.020417849004 xi_0096_0017 - 0.119001175529 xi_0096_0018
 + 0.47399163059 xi_0096_0019 - 0.445604107063 xi_0096_0020
 - 0.0184582213876 xi_0096_0021 + 0.307589905785 xi_0096_0022
 + 0.444474821864 xi_0096_0023 - 0.187382383206 xi_0096_0024
 + 0.383302875585 xi_0096_0025 - 0.750161596334 xi_0096_0026
 - 1.33170117681 xi_0096_0027 + 0.0190658885385 xi_0096_0028
 - 0.745784276999 xi_0096_0029 - 0.516231038044 xi_0096_0030
 - 0.409255825925 xi_0096_0031 - 0.0994375517393 xi_0096_0032
 - 0.734256048841 xi_0096_0033 - 0.253933375138 xi_0096_0034
 - 0.256674950149 xi_0096_0035 - 0.732341101218 xi_0096_0036
 - 0.86707443001 xi_0096_0037 - 0.319117177314 xi_0096_0038
 + 0.0697086420108 xi_0096_0039 >= -9998.75705057
C_0096_loss_le: - 10000 omg_0096 - 0.0111828930987 xi_0096_0000
 + 0.0316585861132 xi_0096_0001 + 0.000106039552982 xi_0096_0002
 + 0.2872356913 xi_0096_0003 + 0.013030358965 xi_0096_0004
 + 0.240120705533 xi_0096_0005 + 0.442580447937 xi_0096_0006
 - 0.375980671537 xi_0096_0007 + 0.392374151169 xi_0096_0008
 + 1.06701819784 xi_0096_0009 - 0.942756746323 xi_0096_0010
 + 0.412027349402 xi_0096_0011 + 0.570359951286 xi_0096_0012
 - 0.852905494999 xi_0096_0013 - 0.323418189169 xi_0096_0014
 + 0.252938924417 xi_0096_0015 - 0.0388599557068 xi_0096_0016
 - 0.020417849004 xi_0096_0017 - 0.119001175529 xi_0096_0018
 + 0.47399163059 xi_0096_0019 - 0.445604107063 xi_0096_0020
 - 0.0184582213876 xi_0096_0021 + 0.307589905785 xi_0096_0022
 + 0.444474821864 xi_0096_0023 - 0.187382383206 xi_0096_0024
 + 0.383302875585 xi_0096_0025 - 0.750161596334 xi_0096_0026
 - 1.33170117681 xi_0096_0027 + 0.0190658885385 xi_0096_0028
 - 0.745784276999 xi_0096_0029 - 0.516231038044 xi_0096_0030
 - 0.409255825925 xi_0096_0031 - 0.0994375517393 xi_0096_0032
 - 0.734256048841 xi_0096_0033 - 0.253933375138 xi_0096_0034
 - 0.256674950149 xi_0096_0035 - 0.732341101218 xi_0096_0036
 - 0.86707443001 xi_0096_0037 - 0.319117177314 xi_0096_0038
 + 0.0697086420108 xi_0096_0039 <= 1.24294941651
C_0097_cost_0001: cost_0097 - 0.0873361949203 pi_0001_0000
 - 0.0442906580929 pi_0001_0001 >= 0
C_0097_cost_0002: cost_0097 - 0.00445869642563 pi_0002_0000
 - 0.00428623281456 pi_0002_0001 - 0.00411384738917 pi_0002_0002
 - 0.00394154012922 pi_0002_0003 - 0.00376931101442 pi_0002_0004
 - 0.00359716002448 pi_0002_0005 - 0.00342508713911 pi_0002_0006
 - 0.00325309233799 pi_0002_0007 - 0.00308117560079 pi_0002_0008
 - 0.00290933690716 pi_0002_0009 - 0.00273757623674 pi_0002_0010
 - 0.00256589356915 pi_0002_0011 - 0.00239428888402 pi_0002_0012
 - 0.00222276216094 pi_0002_0013 - 0.00205131337949 pi_0002_0014
 - 0.00187994251924 pi_0002_0015 - 0.00170864955975 pi_0002_0016
 - 0.00153743448057 pi_0002_0017 - 0.00136629726123 pi_0002_0018
 - 0.00119523788124 pi_0002_0019 - 0.0010242563201 pi_0002_0020
 - 0.000853352557322 pi_0002_0021 - 0.000682526572369 pi_0002_0022
 - 0.000511778344712 pi_0002_0023 - 0.000341107853806 pi_0002_0024
 - 0.000170515079092 pi_0002_0025 >= 0
C_0097_cost_0003: cost_0097 >= 0
C_0097_cost_0004: cost_0097 >= 0
C_0097_cost_0005: cost_0097 >= 0
C_0097_cost_0006: cost_0097 >= 0
C_0097_cost_0007: cost_0097 >= 0
C_0097_cost_0008: cost_0097 >= 0
C_0097_cost_0009: cost_0097 >= 0
C_0097_cost_0010: cost_0097 >= 0
C_0097_cost_0011: cost_0097 >= 0
C_0097_cost_0012: cost_0097 >= 0
C_0097_cost_0013: cost_0097 >= 0
C_0097_cost_0014: cost_0097 >= 0
C_0097_cost_0015: cost_0097 >= 0
C_0097_cost_0016: cost_0097 >= 0
C_0097_cost_0017: cost_0097 >= 0
C_0097_cost_0018: cost_0097 >= 0
C_0097_cost_0019: cost_0097 >= 0
C_0097_cost_0020: cost_0097 >= 0
C_0097_cost_0021: cost_0097 >= 0
C_0097_cost_0022: cost_0097 >= 0
C_0097_cost_0023: cost_0097 >= 0
C_0097_cost_0024: cost_0097 >= 0
C_0097_cost_0025: cost_0097 >= 0
C_0097_cost_0026: cost_0097 - 0.0106666652041 pi_0026_0000 >= 0
C_0097_cost_0027: cost_0097 >= 0
C_0097_cost_0028: cost_0097 >= 0
C_0097_cost_0029: cost_0097 - 0.426666385001 pi_0029_0000 >= 0
C_0097_cost_0030: cost_0097 >= 0
C_0097_cost_0031: cost_0097 >= 0
C_0097_cost_0032: cost_0097 >= 0
C_0097_cost_0033: cost_0097 >= 0
C_0097_cost_0034: cost_0097 >= 0
C_0097_cost_0035: cost_0097 >= 0
C_0097_cost_0036: cost_0097 >= 0
C_0097_linear_0000: - act_0000 + xi_0097_0000 = 25
C_0097_linear_0001: - act_0001 + xi_0097_0001 = 12
C_0097_linear_0002: - act_0002 + xi_0097_0002 = 2969
C_0097_linear_0003: - act_0003 + xi_0097_0003 = 4
C_0097_linear_0004: - act_0004 + xi_0097_0004 = 3
C_0097_linear_0005: - act_0005 + xi_0097_0005 = 2
C_0097_linear_0006: - act_0006 + xi_0097_0006 = 0
C_0097_linear_0007: - act_0007 + xi_0097_0007 = 0
C_0097_linear_0008: - act_0008 + xi_0097_0008 = 1
C_0097_linear_0009: - act_0009 + xi_0097_0009 = 0
C_0097_linear_0010: - act_0010 + xi_0097_0010 = 0
C_0097_linear_0011: - act_0011 + xi_0097_0011 = 0
C_0097_linear_0012: - act_0012 + xi_0097_0012 = 0
C_0097_linear_0013: - act_0013 + xi_0097_0013 = 0
C_0097_linear_0014: - act_0014 + xi_0097_0014 = 0
C_0097_linear_0015: - act_0015 + xi_0097_0015 = 1
C_0097_linear_0016: - act_0016 + xi_0097_0016 = 0
C_0097_linear_0017: - act_0017 + xi_0097_0017 = 1
C_0097_linear_0018: - act_0018 + xi_0097_0018 = 0
C_0097_linear_0019: - act_0019 + xi_0097_0019 = 0
C_0097_linear_0020: - act_0020 + xi_0097_0020 = 0
C_0097_linear_0021: - act_0021 + xi_0097_0021 = 1
C_0097_linear_0022: - act_0022 + xi_0097_0022 = 0
C_0097_linear_0023: - act_0023 + xi_0097_0023 = 0
C_0097_linear_0024: - act_0024 + xi_0097_0024 = 0
C_0097_linear_0025: - act_0025 + xi_0097_0025 = 0
C_0097_linear_0026: - act_0026 + xi_0097_0026 = 0
C_0097_linear_0027: - act_0027 + xi_0097_0027 = 0
C_0097_linear_0028: - act_0028 + xi_0097_0028 = 1
C_0097_linear_0029: - act_0029 + xi_0097_0029 = 0
C_0097_linear_0030: - act_0030 + xi_0097_0030 = 0
C_0097_linear_0031: - act_0031 + xi_0097_0031 = 0
C_0097_linear_0032: - act_0032 + xi_0097_0032 = 1
C_0097_linear_0033: - act_0033 + xi_0097_0033 = 0
C_0097_linear_0034: - act_0034 + xi_0097_0034 = 1
C_0097_linear_0035: - act_0035 + xi_0097_0035 = 0
C_0097_linear_0036: - act_0036 + xi_0097_0036 = 0
C_0097_linear_0037: - act_0037 + xi_0097_0037 = 0
C_0097_linear_0038: - act_0038 + xi_0097_0038 = 0
C_0097_linear_0039: - act_0039 + xi_0097_0039 = 0
C_0097_loss_ge: - 10000 omg_0097 - 0.0111828930987 xi_0097_0000
 + 0.0316585861132 xi_0097_0001 + 0.000106039552982 xi_0097_0002
 + 0.2872356913 xi_0097_0003 + 0.013030358965 xi_0097_0004
 + 0.240120705533 xi_0097_0005 + 0.442580447937 xi_0097_0006
 - 0.375980671537 xi_0097_0007 + 0.392374151169 xi_0097_0008
 + 1.06701819784 xi_0097_0009 - 0.942756746323 xi_0097_0010
 + 0.412027349402 xi_0097_0011 + 0.570359951286 xi_0097_0012
 - 0.852905494999 xi_0097_0013 - 0.323418189169 xi_0097_0014
 + 0.252938924417 xi_0097_0015 - 0.0388599557068 xi_0097_0016
 - 0.020417849004 xi_0097_0017 - 0.119001175529 xi_0097_0018
 + 0.47399163059 xi_0097_0019 - 0.445604107063 xi_0097_0020
 - 0.0184582213876 xi_0097_0021 + 0.307589905785 xi_0097_0022
 + 0.444474821864 xi_0097_0023 - 0.187382383206 xi_0097_0024
 + 0.383302875585 xi_0097_0025 - 0.750161596334 xi_0097_0026
 - 1.33170117681 xi_0097_0027 + 0.0190658885385 xi_0097_0028
 - 0.745784276999 xi_0097_0029 - 0.516231038044 xi_0097_0030
 - 0.409255825925 xi_0097_0031 - 0.0994375517393 xi_0097_0032
 - 0.734256048841 xi_0097_0033 - 0.253933375138 xi_0097_0034
 - 0.256674950149 xi_0097_0035 - 0.732341101218 xi_0097_0036
 - 0.86707443001 xi_0097_0037 - 0.319117177314 xi_0097_0038
 + 0.0697086420108 xi_0097_0039 >= -9998.75705057
C_0097_loss_le: - 10000 omg_0097 - 0.0111828930987 xi_0097_0000
 + 0.0316585861132 xi_0097_0001 + 0.000106039552982 xi_0097_0002
 + 0.2872356913 xi_0097_0003 + 0.013030358965 xi_0097_0004
 + 0.240120705533 xi_0097_0005 + 0.442580447937 xi_0097_0006
 - 0.375980671537 xi_0097_0007 + 0.392374151169 xi_0097_0008
 + 1.06701819784 xi_0097_0009 - 0.942756746323 xi_0097_0010
 + 0.412027349402 xi_0097_0011 + 0.570359951286 xi_0097_0012
 - 0.852905494999 xi_0097_0013 - 0.323418189169 xi_0097_0014
 + 0.252938924417 xi_0097_0015 - 0.0388599557068 xi_0097_0016
 - 0.020417849004 xi_0097_0017 - 0.119001175529 xi_0097_0018
 + 0.47399163059 xi_0097_0019 - 0.445604107063 xi_0097_0020
 - 0.0184582213876 xi_0097_0021 + 0.307589905785 xi_0097_0022
 + 0.444474821864 xi_0097_0023 - 0.187382383206 xi_0097_0024
 + 0.383302875585 xi_0097_0025 - 0.750161596334 xi_0097_0026
 - 1.33170117681 xi_0097_0027 + 0.0190658885385 xi_0097_0028
 - 0.745784276999 xi_0097_0029 - 0.516231038044 xi_0097_0030
 - 0.409255825925 xi_0097_0031 - 0.0994375517393 xi_0097_0032
 - 0.734256048841 xi_0097_0033 - 0.253933375138 xi_0097_0034
 - 0.256674950149 xi_0097_0035 - 0.732341101218 xi_0097_0036
 - 0.86707443001 xi_0097_0037 - 0.319117177314 xi_0097_0038
 + 0.0697086420108 xi_0097_0039 <= 1.24294941651
C_basic_act_0000: act_0000 = 0
C_basic_act_0001: act_0001 + 2 pi_0001_0000 + pi_0001_0001 = 0
C_basic_act_0002: act_0002 + 26 pi_0002_0000 + 25 pi_0002_0001
 + 24 pi_0002_0002 + 23 pi_0002_0003 + 22 pi_0002_0004 + 21 pi_0002_0005
 + 20 pi_0002_0006 + 19 pi_0002_0007 + 18 pi_0002_0008 + 17 pi_0002_0009
 + 16 pi_0002_0010 + 15 pi_0002_0011 + 14 pi_0002_0012 + 13 pi_0002_0013
 + 12 pi_0002_0014 + 11 pi_0002_0015 + 10 pi_0002_0016 + 9 pi_0002_0017
 + 8 pi_0002_0018 + 7 pi_0002_0019 + 6 pi_0002_0020 + 5 pi_0002_0021
 + 4 pi_0002_0022 + 3 pi_0002_0023 + 2 pi_0002_0024 + pi_0002_0025 = 0
C_basic_act_0003: act_0003 = 0
C_basic_act_0004: act_0004 = 0
C_basic_act_0005: act_0005 = 0
C_basic_act_0006: act_0006 = 0
C_basic_act_0007: act_0007 = 0
C_basic_act_0008: act_0008 = 0
C_basic_act_0009: act_0009 = 0
C_basic_act_0010: act_0010 = 0
C_basic_act_0011: act_0011 = 0
C_basic_act_0012: act_0012 = 0
C_basic_act_0013: act_0013 = 0
C_basic_act_0014: act_0014 = 0
C_basic_act_0015: act_0015 = 0
C_basic_act_0016: act_0016 = 0
C_basic_act_0017: act_0017 = 0
C_basic_act_0018: act_0018 = 0
C_basic_act_0019: act_0019 = 0
C_basic_act_0020: act_0020 = 0
C_basic_act_0021: act_0021 = 0
C_basic_act_0022: act_0022 = 0
C_basic_act_0023: act_0023 = 0
C_basic_act_0024: act_0024 = 0
C_basic_act_0025: act_0025 = 0
C_basic_act_0026: act_0026 - pi_0026_0000 = 0
C_basic_act_0027: act_0027 = 0
C_basic_act_0028: act_0028 = 0
C_basic_act_0029: act_0029 - pi_0029_0000 = 0
C_basic_act_0030: act_0030 = 0
C_basic_act_0031: act_0031 = 0
C_basic_act_0032: act_0032 = 0
C_basic_act_0033: act_0033 = 0
C_basic_act_0034: act_0034 = 0
C_basic_act_0035: act_0035 = 0
C_basic_act_0036: act_0036 = 0
C_basic_act_0037: act_0037 = 0
C_basic_act_0038: act_0038 = 0
C_basic_act_0039: act_0039 = 0
C_basic_category_0000: act_0018 + act_0019 + act_0020 + act_0021 + act_0022
 + act_0023 + act_0024 + act_0025 + act_0026 + act_0027 = 0
C_basic_category_0001: act_0028 + act_0029 + act_0030 = 0
C_basic_category_0002: act_0031 + act_0032 + act_0033 = 0
C_basic_category_0003: act_0034 + act_0035 + act_0036 = 0
C_basic_pi_0000: pi_0000_0000 = 1
C_basic_pi_0001: pi_0001_0000 + pi_0001_0001 + pi_0001_0002 = 1
C_basic_pi_0002: pi_0002_0000 + pi_0002_0001 + pi_0002_0002 + pi_0002_0003
 + pi_0002_0004 + pi_0002_0005 + pi_0002_0006 + pi_0002_0007 + pi_0002_0008
 + pi_0002_0009 + pi_0002_0010 + pi_0002_0011 + pi_0002_0012 + pi_0002_0013
 + pi_0002_0014 + pi_0002_0015 + pi_0002_0016 + pi_0002_0017 + pi_0002_0018
 + pi_0002_0019 + pi_0002_0020 + pi_0002_0021 + pi_0002_0022 + pi_0002_0023
 + pi_0002_0024 + pi_0002_0025 + pi_0002_0026 = 1
C_basic_pi_0003: pi_0003_0000 = 1
C_basic_pi_0004: pi_0004_0000 = 1
C_basic_pi_0005: pi_0005_0000 = 1
C_basic_pi_0006: pi_0006_0000 = 1
C_basic_pi_0007: pi_0007_0000 = 1
C_basic_pi_0008: pi_0008_0000 = 1
C_basic_pi_0009: pi_0009_0000 = 1
C_basic_pi_0010: pi_0010_0000 = 1
C_basic_pi_0011: pi_0011_0000 = 1
C_basic_pi_0012: pi_0012_0000 = 1
C_basic_pi_0013: pi_0013_0000 = 1
C_basic_pi_0014: pi_0014_0000 = 1
C_basic_pi_0015: pi_0015_0000 = 1
C_basic_pi_0016: pi_0016_0000 = 1
C_basic_pi_0017: pi_0017_0000 = 1
C_basic_pi_0018: pi_0018_0000 = 1
C_basic_pi_0019: pi_0019_0000 = 1
C_basic_pi_0020: pi_0020_0000 = 1
C_basic_pi_0021: pi_0021_0000 = 1
C_basic_pi_0022: pi_0022_0000 = 1
C_basic_pi_0023: pi_0023_0000 = 1
C_basic_pi_0024: pi_0024_0000 = 1
C_basic_pi_0025: pi_0025_0000 = 1
C_basic_pi_0026: pi_0026_0000 + pi_0026_0001 = 1
C_basic_pi_0027: pi_0027_0000 = 1
C_basic_pi_0028: pi_0028_0000 = 1
C_basic_pi_0029: pi_0029_0000 + pi_0029_0001 = 1
C_basic_pi_0030: pi_0030_0000 = 1
C_basic_pi_0031: pi_0031_0000 = 1
C_basic_pi_0032: pi_0032_0000 = 1
C_basic_pi_0033: pi_0033_0000 = 1
C_basic_pi_0034: pi_0034_0000 = 1
C_basic_pi_0035: pi_0035_0000 = 1
C_basic_pi_0036: pi_0036_0000 = 1
C_basic_pi_0037: pi_0037_0000 = 1
C_basic_pi_0038: pi_0038_0000 = 1
C_basic_pi_0039: pi_0039_0000 = 1
C_basic_sparsity: pi_0001_0000 + pi_0001_0001 + pi_0002_0000 + pi_0002_0001
 + pi_0002_0002 + pi_0002_0003 + pi_0002_0004 + pi_0002_0005 + pi_0002_0006
 + pi_0002_0007 + pi_0002_0008 + pi_0002_0009 + pi_0002_0010 + pi_0002_0011
 + pi_0002_0012 + pi_0002_0013 + pi_0002_0014 + pi_0002_0015 + pi_0002_0016
 + pi_0002_0017 + pi_0002_0018 + pi_0002_0019 + pi_0002_0020 + pi_0002_0021
 + pi_0002_0022 + pi_0002_0023 + pi_0002_0024 + pi_0002_0025 + pi_0026_0000
 + pi_0029_0000 <= 3
_C1: cost_0000 + cost_0001 + cost_0002 + cost_0003 + cost_0004 + cost_0005
 + cost_0006 + cost_0007 + cost_0008 + cost_0009 + cost_0010 + cost_0011
 + cost_0012 + cost_0013 + cost_0014 + cost_0015 + cost_0016 + cost_0017
 + cost_0018 + cost_0019 + cost_0020 + cost_0021 + cost_0022 + cost_0023
 + cost_0024 + cost_0025 + cost_0026 + cost_0027 + cost_0028 + cost_0029
 + cost_0030 + cost_0031 + cost_0032 + cost_0033 + cost_0034 + cost_0035
 + cost_0036 + cost_0037 + cost_0038 + cost_0039 + cost_0040 + cost_0041
 + cost_0042 + cost_0043 + cost_0044 + cost_0045 + cost_0046 + cost_0047
 + cost_0048 + cost_0049 + cost_0050 + cost_0051 + cost_0052 + cost_0053
 + cost_0054 + cost_0055 + cost_0056 + cost_0057 + cost_0058 + cost_0059
 + cost_0060 + cost_0061 + cost_0062 + cost_0063 + cost_0064 + cost_0065
 + cost_0066 + cost_0067 + cost_0068 + cost_0069 + cost_0070 + cost_0071
 + cost_0072 + cost_0073 + cost_0074 + cost_0075 + cost_0076 + cost_0077
 + cost_0078 + cost_0079 + cost_0080 + cost_0081 + cost_0082 + cost_0083
 + cost_0084 + cost_0085 + cost_0086 + cost_0087 + cost_0088 + cost_0089
 + cost_0090 + cost_0091 + cost_0092 + cost_0093 + cost_0094 + cost_0095
 + cost_0096 + cost_0097 + omg_0000 + omg_0001 + omg_0002 + omg_0003
 + omg_0004 + omg_0005 + omg_0006 + omg_0007 + omg_0008 + omg_0009 + omg_0010
 + omg_0011 + omg_0012 + omg_0013 + omg_0014 + omg_0015 + omg_0016 + omg_0017
 + omg_0018 + omg_0019 + omg_0020 + omg_0021 + omg_0022 + omg_0023 + omg_0024
 + omg_0025 + omg_0026 + omg_0027 + omg_0028 + omg_0029 + omg_0030 + omg_0031
 + omg_0032 + omg_0033 + omg_0034 + omg_0035 + omg_0036 + omg_0037 + omg_0038
 + omg_0039 + omg_0040 + omg_0041 + omg_0042 + omg_0043 + omg_0044 + omg_0045
 + omg_0046 + omg_0047 + omg_0048 + omg_0049 + omg_0050 + omg_0051 + omg_0052
 + omg_0053 + omg_0054 + omg_0055 + omg_0056 + omg_0057 + omg_0058 + omg_0059
 + omg_0060 + omg_0061 + omg_0062 + omg_0063 + omg_0064 + omg_0065 + omg_0066
 + omg_0067 + omg_0068 + omg_0069 + omg_0070 + omg_0071 + omg_0072 + omg_0073
 + omg_0074 + omg_0075 + omg_0076 + omg_0077 + omg_0078 + omg_0079 + omg_0080
 + omg_0081 + omg_0082 + omg_0083 + omg_0084 + omg_0085 + omg_0086 + omg_0087
 + omg_0088 + omg_0089 + omg_0090 + omg_0091 + omg_0092 + omg_0093 + omg_0094
 + omg_0095 + omg_0096 + omg_0097 >= 0
Bounds
 act_0000 = 0
 -2 <= act_0001 <= 0
 -26 <= act_0002 <= 0
 act_0003 = 0
 act_0004 = 0
 act_0005 = 0
 act_0006 = 0
 act_0007 = 0
 act_0008 = 0
 act_0009 = 0
 act_0010 = 0
 act_0011 = 0
 act_0012 = 0
 act_0013 = 0
 act_0014 = 0
 act_0015 = 0
 act_0016 = 0
 act_0017 = 0
 act_0018 = 0
 act_0019 = 0
 act_0020 = 0
 act_0021 = 0
 act_0022 = 0
 act_0023 = 0
 act_0024 = 0
 act_0025 = 0
 act_0026 <= 1
 act_0027 = 0
 act_0028 = 0
 act_0029 <= 1
 act_0030 = 0
 act_0031 = 0
 act_0032 = 0
 act_0033 = 0
 act_0034 = 0
 act_0035 = 0
 act_0036 = 0
 act_0037 = 0
 act_0038 = 0
 act_0039 = 0
 xi_0000_0000 = 27
 46 <= xi_0000_0001 <= 48
 3583 <= xi_0000_0002 <= 3609
 xi_0000_0003 = 1
 xi_0000_0004 = 1
 xi_0000_0005 = 1
 xi_0000_0006 = 0
 xi_0000_0007 = 0
 xi_0000_0008 = 1
 xi_0000_0009 = 1
 xi_0000_0010 = 0
 xi_0000_0011 = 0
 xi_0000_0012 = 0
 xi_0000_0013 = 0
 xi_0000_0014 = 1
 xi_0000_0015 = 0
 xi_0000_0016 = 0
 xi_0000_0017 = 1
 xi_0000_0018 = 1
 xi_0000_0019 = 0
 xi_0000_0020 = 0
 xi_0000_0021 = 0
 xi_0000_0022 = 0
 xi_0000_0023 = 0
 xi_0000_0024 = 0
 xi_0000_0025 = 0
 xi_0000_0026 <= 1
 xi_0000_0027 = 0
 xi_0000_0028 = 0
 xi_0000_0029 <= 1
 xi_0000_0030 = 1
 xi_0000_0031 = 1
 xi_0000_0032 = 0
 xi_0000_0033 = 0
 xi_0000_0034 = 1
 xi_0000_0035 = 0
 xi_0000_0036 = 0
 xi_0000_0037 = 0
 xi_0000_0038 = 0
 xi_0000_0039 = 0
 xi_0001_0000 = 43
 34 <= xi_0001_0001 <= 36
 15831 <= xi_0001_0002 <= 15857
 xi_0001_0003 = 2
 xi_0001_0004 = 3
 xi_0001_0005 = 1
 xi_0001_0006 = 0
 xi_0001_0007 = 0
 xi_0001_0008 = 1
 xi_0001_0009 = 0
 xi_0001_0010 = 0
 xi_0001_0011 = 0
 xi_0001_0012 = 1
 xi_0001_0013 = 0
 xi_0001_0014 = 1
 xi_0001_0015 = 0
 xi_0001_0016 = 1
 xi_0001_0017 = 1
 xi_0001_0018 = 0
 xi_0001_0019 = 0
 xi_0001_0020 = 0
 xi_0001_0021 = 0
 xi_0001_0022 = 0
 xi_0001_0023 = 0
 xi_0001_0024 = 1
 xi_0001_0025 = 0
 xi_0001_0026 <= 1
 xi_0001_0027 = 0
 xi_0001_0028 = 0
 xi_0001_0029 <= 1
 xi_0001_0030 = 1
 xi_0001_0031 = 1
 xi_0001_0032 = 0
 xi_0001_0033 = 0
 xi_0001_0034 = 1
 xi_0001_0035 = 0
 xi_0001_0036 = 0
 xi_0001_0037 = 0
 xi_0001_0038 = 0
 xi_0001_0039 = 1
 xi_0002_0000 = 23
 4 <= xi_0002_0001 <= 6
 422 <= xi_0002_0002 <= 448
 xi_0002_0003 = 4
 xi_0002_0004 = 4
 xi_0002_0005 = 1
 xi_0002_0006 = 0
 xi_0002_0007 = 0
 xi_0002_0008 = 1
 xi_0002_0009 = 0
 xi_0002_0010 = 0
 xi_0002_0011 = 0
 xi_0002_0012 = 0
 xi_0002_0013 = 0
 xi_0002_0014 = 1
 xi_0002_0015 = 0
 xi_0002_0016 = 0
 xi_0002_0017 = 1
 xi_0002_0018 = 0
 xi_0002_0019 = 1
 xi_0002_0020 = 0
 xi_0002_0021 = 0
 xi_0002_0022 = 0
 xi_0002_0023 = 0
 xi_0002_0024 = 0
 xi_0002_0025 = 0
 xi_0002_0026 <= 1
 xi_0002_0027 = 0
 xi_0002_0028 = 1
 xi_0002_0029 <= 1
 xi_0002_0030 = 0
 xi_0002_0031 = 1
 xi_0002_0032 = 0
 xi_0002_0033 = 0
 xi_0002_0034 = 1
 xi_0002_0035 = 0
 xi_0002_0036 = 0
 xi_0002_0037 = 0
 xi_0002_0038 = 0
 xi_0002_0039 = 0
 xi_0003_0000 = 33
 10 <= xi_0003_0001 <= 12
 2553 <= xi_0003_0002 <= 2579
 xi_0003_0003 = 4
 xi_0003_0004 = 1
 xi_0003_0005 = 1
 xi_0003_0006 = 1
 xi_0003_0007 = 0
 xi_0003_0008 = 1
 xi_0003_0009 = 0
 xi_0003_0010 = 0
 xi_0003_0011 = 0
 xi_0003_0012 = 0
 xi_0003_0013 = 0
 xi_0003_0014 = 1
 xi_0003_0015 = 0
 xi_0003_0016 = 0
 xi_0003_0017 = 0
 xi_0003_0018 = 0
 xi_0003_0019 = 0
 xi_0003_0020 = 0
 xi_0003_0021 = 0
 xi_0003_0022 = 0
 xi_0003_0023 = 1
 xi_0003_0024 = 0
 xi_0003_0025 = 0
 xi_0003_0026 <= 1
 xi_0003_0027 = 0
 xi_0003_0028 = 1
 xi_0003_0029 <= 1
 xi_0003_0030 = 0
 xi_0003_0031 = 1
 xi_0003_0032 = 0
 xi_0003_0033 = 0
 xi_0003_0034 = 1
 xi_0003_0035 = 0
 xi_0003_0036 = 0
 xi_0003_0037 = 0
 xi_0003_0038 = 1
 xi_0003_0039 = 1
 xi_0004_0000 = 29
 22 <= xi_0004_0001 <= 24
 2307 <= xi_0004_0002 <= 2333
 xi_0004_0003 = 4
 xi_0004_0004 = 2
 xi_0004_0005 = 1
 xi_0004_0006 = 0
 xi_0004_0007 = 0
 xi_0004_0008 = 0
 xi_0004_0009 = 0
 xi_0004_0010 = 0
 xi_0004_0011 = 1
 xi_0004_0012 = 0
 xi_0004_0013 = 0
 xi_0004_0014 = 1
 xi_0004_0015 = 0
 xi_0004_0016 = 0
 xi_0004_0017 = 0
 xi_0004_0018 = 0
 xi_0004_0019 = 0
 xi_0004_0020 = 0
 xi_0004_0021 = 1
 xi_0004_0022 = 0
 xi_0004_0023 = 0
 xi_0004_0024 = 0
 xi_0004_0025 = 0
 xi_0004_0026 <= 1
 xi_0004_0027 = 0
 xi_0004_0028 = 1
 xi_0004_0029 <= 1
 xi_0004_0030 = 0
 xi_0004_0031 = 0
 xi_0004_0032 = 1
 xi_0004_0033 = 0
 xi_0004_0034 = 1
 xi_0004_0035 = 0
 xi_0004_0036 = 0
 xi_0004_0037 = 0
 xi_0004_0038 = 1
 xi_0004_0039 = 1
 xi_0005_0000 = 31
 28 <= xi_0005_0001 <= 30
 3082 <= xi_0005_0002 <= 3108
 xi_0005_0003 = 2
 xi_0005_0004 = 4
 xi_0005_0005 = 1
 xi_0005_0006 = 0
 xi_0005_0007 = 0
 xi_0005_0008 = 1
 xi_0005_0009 = 0
 xi_0005_0010 = 0
 xi_0005_0011 = 0
 xi_0005_0012 = 0
 xi_0005_0013 = 0
 xi_0005_0014 = 1
 xi_0005_0015 = 0
 xi_0005_0016 = 0
 xi_0005_0017 = 0
 xi_0005_0018 = 0
 xi_0005_0019 = 0
 xi_0005_0020 = 0
 xi_0005_0021 = 1
 xi_0005_0022 = 0
 xi_0005_0023 = 0
 xi_0005_0024 = 0
 xi_0005_0025 = 0
 xi_0005_0026 <= 1
 xi_0005_0027 = 0
 xi_0005_0028 = 1
 xi_0005_0029 <= 1
 xi_0005_0030 = 0
 xi_0005_0031 = 1
 xi_0005_0032 = 0
 xi_0005_0033 = 0
 xi_0005_0034 = 1
 xi_0005_0035 = 0
 xi_0005_0036 = 0
 xi_0005_0037 = 0
 xi_0005_0038 = 0
 xi_0005_0039 = 1
 xi_0006_0000 = 25
 10 <= xi_0006_0001 <= 12
 1269 <= xi_0006_0002 <= 1295
 xi_0006_0003 = 3
 xi_0006_0004 = 1
 xi_0006_0005 = 1
 xi_0006_0006 = 0
 xi_0006_0007 = 0
 xi_0006_0008 = 1
 xi_0006_0009 = 0
 xi_0006_0010 = 0
 xi_0006_0011 = 0
 xi_0006_0012 = 0
 xi_0006_0013 = 0
 xi_0006_0014 = 0
 xi_0006_0015 = 1
 xi_0006_0016 = 0
 xi_0006_0017 = 1
 xi_0006_0018 = 0
 xi_0006_0019 = 0
 xi_0006_0020 = 0
 xi_0006_0021 = 0
 xi_0006_0022 = 0
 xi_0006_0023 = 1
 xi_0006_0024 = 0
 xi_0006_0025 = 0
 xi_0006_0026 <= 1
 xi_0006_0027 = 0
 xi_0006_0028 = 1
 xi_0006_0029 <= 1
 xi_0006_0030 = 0
 xi_0006_0031 = 0
 xi_0006_0032 = 1
 xi_0006_0033 = 0
 xi_0006_0034 = 1
 xi_0006_0035 = 0
 xi_0006_0036 = 0
 xi_0006_0037 = 0
 xi_0006_0038 = 0
 xi_0006_0039 = 0
 xi_0007_0000 = 37
 34 <= xi_0007_0001 <= 36
 1793 <= xi_0007_0002 <= 1819
 xi_0007_0003 = 4
 xi_0007_0004 = 4
 xi_0007_0005 = 1
 xi_0007_0006 = 0
 xi_0007_0007 = 1
 xi_0007_0008 = 1
 xi_0007_0009 = 0
 xi_0007_0010 = 0
 xi_0007_0011 = 0
 xi_0007_0012 = 0
 xi_0007_0013 = 0
 xi_0007_0014 = 0
 xi_0007_0015 = 0
 xi_0007_0016 = 0
 xi_0007_0017 = 1
 xi_0007_0018 = 0
 xi_0007_0019 = 1
 xi_0007_0020 = 0
 xi_0007_0021 = 0
 xi_0007_0022 = 0
 xi_0007_0023 = 0
 xi_0007_0024 = 0
 xi_0007_0025 = 0
 xi_0007_0026 <= 1
 xi_0007_0027 = 0
 xi_0007_0028 = 0
 xi_0007_0029 <= 1
 xi_0007_0030 = 1
 xi_0007_0031 = 1
 xi_0007_0032 = 0
 xi_0007_0033 = 0
 xi_0007_0034 = 1
 xi_0007_0035 = 0
 xi_0007_0036 = 0
 xi_0007_0037 = 0
 xi_0007_0038 = 1
 xi_0007_0039 = 1
 xi_0008_0000 = 44
 46 <= xi_0008_0001 <= 48
 10101 <= xi_0008_0002 <= 10127
 xi_0008_0003 = 2
 xi_0008_0004 = 2
 xi_0008_0005 = 1
 xi_0008_0006 = 0
 xi_0008_0007 = 0
 xi_0008_0008 = 1
 xi_0008_0009 = 0
 xi_0008_0010 = 1
 xi_0008_0011 = 1
 xi_0008_0012 = 0
 xi_0008_0013 = 0
 xi_0008_0014 = 0
 xi_0008_0015 = 0
 xi_0008_0016 = 0
 xi_0008_0017 = 1
 xi_0008_0018 = 0
 xi_0008_0019 = 0
 xi_0008_0020 = 0
 xi_0008_0021 = 0
 xi_0008_0022 = 0
 xi_0008_0023 = 1
 xi_0008_0024 = 0
 xi_0008_0025 = 0
 xi_0008_0026 <= 1
 xi_0008_0027 = 0
 xi_0008_0028 = 0
 xi_0008_0029 <= 1
 xi_0008_0030 = 1
 xi_0008_0031 = 1
 xi_0008_0032 = 0
 xi_0008_0033 = 0
 xi_0008_0034 = 0
 xi_0008_0035 = 0
 xi_0008_0036 = 1
 xi_0008_0037 = 0
 xi_0008_0038 = 1
 xi_0008_0039 = 1
 xi_0009_0000 = 42
 58 <= xi_0009_0001 <= 60
 6262 <= xi_0009_0002 <= 6288
 xi_0009_0003 = 4
 xi_0009_0004 = 4
 xi_0009_0005 = 1
 xi_0009_0006 = 0
 xi_0009_0007 = 0
 xi_0009_0008 = 1
 xi_0009_0009 = 0
 xi_0009_0010 = 0
 xi_0009_0011 = 0
 xi_0009_0012 = 0
 xi_0009_0013 = 0
 xi_0009_0014 = 0
 xi_0009_0015 = 0
 xi_0009_0016 = 0
 xi_0009_0017 = 1
 xi_0009_0018 = 0
 xi_0009_0019 = 1
 xi_0009_0020 = 0
 xi_0009_0021 = 0
 xi_0009_0022 = 0
 xi_0009_0023 = 0
 xi_0009_0024 = 0
 xi_0009_0025 = 0
 xi_0009_0026 <= 1
 xi_0009_0027 = 0
 xi_0009_0028 = 0
 xi_0009_0029 <= 1
 xi_0009_0030 = 1
 xi_0009_0031 = 0
 xi_0009_0032 = 1
 xi_0009_0033 = 0
 xi_0009_0034 = 1
 xi_0009_0035 = 0
 xi_0009_0036 = 0
 xi_0009_0037 = 0
 xi_0009_0038 = 1
 xi_0009_0039 = 1
 xi_0010_0000 = 55
 22 <= xi_0010_0001 <= 24
 6846 <= xi_0010_0002 <= 6872
 xi_0010_0003 = 2
 xi_0010_0004 = 1
 xi_0010_0005 = 1
 xi_0010_0006 = 0
 xi_0010_0007 = 1
 xi_0010_0008 = 1
 xi_0010_0009 = 1
 xi_0010_0010 = 0
 xi_0010_0011 = 1
 xi_0010_0012 = 0
 xi_0010_0013 = 0
 xi_0010_0014 = 1
 xi_0010_0015 = 0
 xi_0010_0016 = 0
 xi_0010_0017 = 1
 xi_0010_0018 = 0
 xi_0010_0019 = 0
 xi_0010_0020 = 0
 xi_0010_0021 = 1
 xi_0010_0022 = 0
 xi_0010_0023 = 0
 xi_0010_0024 = 0
 xi_0010_0025 = 0
 xi_0010_0026 <= 1
 xi_0010_0027 = 0
 xi_0010_0028 = 1
 xi_0010_0029 <= 1
 xi_0010_0030 = 0
 xi_0010_0031 = 1
 xi_0010_0032 = 0
 xi_0010_0033 = 0
 xi_0010_0034 = 1
 xi_0010_0035 = 0
 xi_0010_0036 = 0
 xi_0010_0037 = 0
 xi_0010_0038 = 0
 xi_0010_0039 = 1
 xi_0011_0000 = 35
 45 <= xi_0011_0001 <= 47
 10696 <= xi_0011_0002 <= 10722
 xi_0011_0003 = 1
 xi_0011_0004 = 1
 xi_0011_0005 = 1
 xi_0011_0006 = 0
 xi_0011_0007 = 1
 xi_0011_0008 = 1
 xi_0011_0009 = 0
 xi_0011_0010 = 0
 xi_0011_0011 = 0
 xi_0011_0012 = 0
 xi_0011_0013 = 0
 xi_0011_0014 = 1
 xi_0011_0015 = 0
 xi_0011_0016 = 0
 xi_0011_0017 = 0
 xi_0011_0018 = 0
 xi_0011_0019 = 0
 xi_0011_0020 = 0
 xi_0011_0021 = 0
 xi_0011_0022 = 0
 xi_0011_0023 = 1
 xi_0011_0024 = 0
 xi_0011_0025 = 0
 xi_0011_0026 <= 1
 xi_0011_0027 = 0
 xi_0011_0028 = 1
 xi_0011_0029 <= 1
 xi_0011_0030 = 0
 xi_0011_0031 = 1
 xi_0011_0032 = 0
 xi_0011_0033 = 0
 xi_0011_0034 = 1
 xi_0011_0035 = 0
 xi_0011_0036 = 0
 xi_0011_0037 = 0
 xi_0011_0038 = 0
 xi_0011_0039 = 0
 xi_0012_0000 = 34
 40 <= xi_0012_0001 <= 42
 3939 <= xi_0012_0002 <= 3965
 xi_0012_0003 = 4
 xi_0012_0004 = 3
 xi_0012_0005 = 1
 xi_0012_0006 = 0
 xi_0012_0007 = 0
 xi_0012_0008 = 1
 xi_0012_0009 = 0
 xi_0012_0010 = 0
 xi_0012_0011 = 0
 xi_0012_0012 = 0
 xi_0012_0013 = 0
 xi_0012_0014 = 1
 xi_0012_0015 = 0
 xi_0012_0016 = 0
 xi_0012_0017 = 1
 xi_0012_0018 = 0
 xi_0012_0019 = 0
 xi_0012_0020 = 1
 xi_0012_0021 = 0
 xi_0012_0022 = 0
 xi_0012_0023 = 0
 xi_0012_0024 = 0
 xi_0012_0025 = 0
 xi_0012_0026 <= 1
 xi_0012_0027 = 0
 xi_0012_0028 = 1
 xi_0012_0029 <= 1
 xi_0012_0030 = 0
 xi_0012_0031 = 1
 xi_0012_0032 = 0
 xi_0012_0033 = 0
 xi_0012_0034 = 1
 xi_0012_0035 = 0
 xi_0012_0036 = 0
 xi_0012_0037 = 0
 xi_0012_0038 = 1
 xi_0012_0039 = 1
 xi_0013_0000 = 27
 16 <= xi_0013_0001 <= 18
 1898 <= xi_0013_0002 <= 1924
 xi_0013_0003 = 4
 xi_0013_0004 = 3
 xi_0013_0005 = 1
 xi_0013_0006 = 0
 xi_0013_0007 = 0
 xi_0013_0008 = 1
 xi_0013_0009 = 0
 xi_0013_0010 = 0
 xi_0013_0011 = 0
 xi_0013_0012 = 0
 xi_0013_0013 = 0
 xi_0013_0014 = 0
 xi_0013_0015 = 1
 xi_0013_0016 = 0
 xi_0013_0017 = 1
 xi_0013_0018 = 0
 xi_0013_0019 = 0
 xi_0013_0020 = 0
 xi_0013_0021 = 1
 xi_0013_0022 = 0
 xi_0013_0023 = 0
 xi_0013_0024 = 0
 xi_0013_0025 = 0
 xi_0013_0026 <= 1
 xi_0013_0027 = 0
 xi_0013_0028 = 1
 xi_0013_0029 <= 1
 xi_0013_0030 = 0
 xi_0013_0031 = 0
 xi_0013_0032 = 1
 xi_0013_0033 = 0
 xi_0013_0034 = 1
 xi_0013_0035 = 0
 xi_0013_0036 = 0
 xi_0013_0037 = 0
 xi_0013_0038 = 0
 xi_0013_0039 = 0
 xi_0014_0000 = 24
 13 <= xi_0014_0001 <= 15
 1249 <= xi_0014_0002 <= 1275
 xi_0014_0003 = 4
 xi_0014_0004 = 2
 xi_0014_0005 = 1
 xi_0014_0006 = 0
 xi_0014_0007 = 0
 xi_0014_0008 = 1
 xi_0014_0009 = 0
 xi_0014_0010 = 0
 xi_0014_0011 = 0
 xi_0014_0012 = 0
 xi_0014_0013 = 0
 xi_0014_0014 = 0
 xi_0014_0015 = 1
 xi_0014_0016 = 0
 xi_0014_0017 = 1
 xi_0014_0018 = 0
 xi_0014_0019 = 0
 xi_0014_0020 = 0
 xi_0014_0021 = 0
 xi_0014_0022 = 1
 xi_0014_0023 = 0
 xi_0014_0024 = 0
 xi_0014_0025 = 0
 xi_0014_0026 <= 1
 xi_0014_0027 = 0
 xi_0014_0028 = 0
 xi_0014_0029 <= 1
 xi_0014_0030 = 1
 xi_0014_0031 = 1
 xi_0014_0032 = 0
 xi_0014_0033 = 0
 xi_0014_0034 = 1
 xi_0014_0035 = 0
 xi_0014_0036 = 0
 xi_0014_0037 = 0
 xi_0014_0038 = 0
 xi_0014_0039 = 0
 xi_0015_0000 = 26
 13 <= xi_0015_0001 <= 15
 1752 <= xi_0015_0002 <= 1778
 xi_0015_0003 = 2
 xi_0015_0004 = 1
 xi_0015_0005 = 2
 xi_0015_0006 = 0
 xi_0015_0007 = 0
 xi_0015_0008 = 1
 xi_0015_0009 = 0
 xi_0015_0010 = 0
 xi_0015_0011 = 0
 xi_0015_0012 = 0
 xi_0015_0013 = 0
 xi_0015_0014 = 0
 xi_0015_0015 = 1
 xi_0015_0016 = 0
 xi_0015_0017 = 0
 xi_0015_0018 = 0
 xi_0015_0019 = 0
 xi_0015_0020 = 0
 xi_0015_0021 = 0
 xi_0015_0022 = 0
 xi_0015_0023 = 1
 xi_0015_0024 = 0
 xi_0015_0025 = 0
 xi_0015_0026 <= 1
 xi_0015_0027 = 0
 xi_0015_0028 = 1
 xi_0015_0029 <= 1
 xi_0015_0030 = 0
 xi_0015_0031 = 0
 xi_0015_0032 = 1
 xi_0015_0033 = 0
 xi_0015_0034 = 1
 xi_0015_0035 = 0
 xi_0015_0036 = 0
 xi_0015_0037 = 0
 xi_0015_0038 = 0
 xi_0015_0039 = 0
 xi_0016_0000 = 25
 28 <= xi_0016_0001 <= 30
 8046 <= xi_0016_0002 <= 8072
 xi_0016_0003 = 2
 xi_0016_0004 = 3
 xi_0016_0005 = 3
 xi_0016_0006 = 0
 xi_0016_0007 = 0
 xi_0016_0008 = 1
 xi_0016_0009 = 0
 xi_0016_0010 = 0
 xi_0016_0011 = 1
 xi_0016_0012 = 0
 xi_0016_0013 = 0
 xi_0016_0014 = 1
 xi_0016_0015 = 0
 xi_0016_0016 = 0
 xi_0016_0017 = 1
 xi_0016_0018 = 1
 xi_0016_0019 = 0
 xi_0016_0020 = 0
 xi_0016_0021 = 0
 xi_0016_0022 = 0
 xi_0016_0023 = 0
 xi_0016_0024 = 0
 xi_0016_0025 = 0
 xi_0016_0026 <= 1
 xi_0016_0027 = 0
 xi_0016_0028 = 1
 xi_0016_0029 <= 1
 xi_0016_0030 = 0
 xi_0016_0031 = 1
 xi_0016_0032 = 0
 xi_0016_0033 = 0
 xi_0016_0034 = 1
 xi_0016_0035 = 0
 xi_0016_0036 = 0
 xi_0016_0037 = 0
 xi_0016_0038 = 1
 xi_0016_0039 = 1
 xi_0017_0000 = 47
 16 <= xi_0017_0001 <= 18
 1958 <= xi_0017_0002 <= 1984
 xi_0017_0003 = 4
 xi_0017_0004 = 4
 xi_0017_0005 = 2
 xi_0017_0006 = 0
 xi_0017_0007 = 0
 xi_0017_0008 = 1
 xi_0017_0009 = 0
 xi_0017_0010 = 0
 xi_0017_0011 = 1
 xi_0017_0012 = 0
 xi_0017_0013 = 0
 xi_0017_0014 = 0
 xi_0017_0015 = 0
 xi_0017_0016 = 0
 xi_0017_0017 = 1
 xi_0017_0018 = 0
 xi_0017_0019 = 0
 xi_0017_0020 = 0
 xi_0017_0021 = 1
 xi_0017_0022 = 0
 xi_0017_0023 = 0
 xi_0017_0024 = 0
 xi_0017_0025 = 0
 xi_0017_0026 <= 1
 xi_0017_0027 = 0
 xi_0017_0028 = 0
 xi_0017_0029 <= 1
 xi_0017_0030 = 1
 xi_0017_0031 = 1
 xi_0017_0032 = 0
 xi_0017_0033 = 0
 xi_0017_0034 = 1
 xi_0017_0035 = 0
 xi_0017_0036 = 0
 xi_0017_0037 = 0
 xi_0017_0038 = 1
 xi_0017_0039 = 1
 xi_0018_0000 = 24
 10 <= xi_0018_0001 <= 12
 600 <= xi_0018_0002 <= 626
 xi_0018_0003 = 4
 xi_0018_0004 = 4
 xi_0018_0005 = 1
 xi_0018_0006 = 0
 xi_0018_0007 = 0
 xi_0018_0008 = 1
 xi_0018_0009 = 1
 xi_0018_0010 = 0
 xi_0018_0011 = 1
 xi_0018_0012 = 0
 xi_0018_0013 = 0
 xi_0018_0014 = 1
 xi_0018_0015 = 0
 xi_0018_0016 = 0
 xi_0018_0017 = 0
 xi_0018_0018 = 0
 xi_0018_0019 = 0
 xi_0018_0020 = 1
 xi_0018_0021 = 0
 xi_0018_0022 = 0
 xi_0018_0023 = 0
 xi_0018_0024 = 0
 xi_0018_0025 = 0
 xi_0018_0026 <= 1
 xi_0018_0027 = 0
 xi_0018_0028 = 0
 xi_0018_0029 <= 1
 xi_0018_0030 = 1
 xi_0018_0031 = 1
 xi_0018_0032 = 0
 xi_0018_0033 = 0
 xi_0018_0034 = 1
 xi_0018_0035 = 0
 xi_0018_0036 = 0
 xi_0018_0037 = 0
 xi_0018_0038 = 0
 xi_0018_0039 = 0
 xi_0019_0000 = 32
 46 <= xi_0019_0001 <= 48
 18398 <= xi_0019_0002 <= 18424
 xi_0019_0003 = 1
 xi_0019_0004 = 2
 xi_0019_0005 = 1
 xi_0019_0006 = 0
 xi_0019_0007 = 1
 xi_0019_0008 = 1
 xi_0019_0009 = 0
 xi_0019_0010 = 0
 xi_0019_0011 = 1
 xi_0019_0012 = 0
 xi_0019_0013 = 0
 xi_0019_0014 = 1
 xi_0019_0015 = 0
 xi_0019_0016 = 0
 xi_0019_0017 = 1
 xi_0019_0018 = 0
 xi_0019_0019 = 0
 xi_0019_0020 = 0
 xi_0019_0021 = 0
 xi_0019_0022 = 0
 xi_0019_0023 = 0
 xi_0019_0024 = 1
 xi_0019_0025 = 0
 xi_0019_0026 <= 1
 xi_0019_0027 = 0
 xi_0019_0028 = 0
 xi_0019_0029 <= 1
 xi_0019_0030 = 1
 xi_0019_0031 = 0
 xi_0019_0032 = 1
 xi_0019_0033 = 0
 xi_0019_0034 = 1
 xi_0019_0035 = 0
 xi_0019_0036 = 0
 xi_0019_0037 = 1
 xi_0019_0038 = 0
 xi_0019_0039 = 0
 xi_0020_0000 = 21
 25 <= xi_0020_0001 <= 27
 2544 <= xi_0020_0002 <= 2570
 xi_0020_0003 = 3
 xi_0020_0004 = 3
 xi_0020_0005 = 1
 xi_0020_0006 = 0
 xi_0020_0007 = 0
 xi_0020_0008 = 1
 xi_0020_0009 = 0
 xi_0020_0010 = 0
 xi_0020_0011 = 0
 xi_0020_0012 = 0
 xi_0020_0013 = 0
 xi_0020_0014 = 0
 xi_0020_0015 = 1
 xi_0020_0016 = 0
 xi_0020_0017 = 1
 xi_0020_0018 = 0
 xi_0020_0019 = 0
 xi_0020_0020 = 0
 xi_0020_0021 = 0
 xi_0020_0022 = 0
 xi_0020_0023 = 1
 xi_0020_0024 = 0
 xi_0020_0025 = 0
 xi_0020_0026 <= 1
 xi_0020_0027 = 0
 xi_0020_0028 = 0
 xi_0020_0029 <= 1
 xi_0020_0030 = 1
 xi_0020_0031 = 1
 xi_0020_0032 = 0
 xi_0020_0033 = 0
 xi_0020_0034 = 1
 xi_0020_0035 = 0
 xi_0020_0036 = 0
 xi_0020_0037 = 0
 xi_0020_0038 = 0
 xi_0020_0039 = 0
 xi_0021_0000 = 25
 43 <= xi_0021_0001 <= 45
 4720 <= xi_0021_0002 <= 4746
 xi_0021_0003 = 4
 xi_0021_0004 = 2
 xi_0021_0005 = 2
 xi_0021_0006 = 0
 xi_0021_0007 = 0
 xi_0021_0008 = 1
 xi_0021_0009 = 0
 xi_0021_0010 = 1
 xi_0021_0011 = 0
 xi_0021_0012 = 0
 xi_0021_0013 = 0
 xi_0021_0014 = 1
 xi_0021_0015 = 0
 xi_0021_0016 = 0
 xi_0021_0017 = 0
 xi_0021_0018 = 0
 xi_0021_0019 = 0
 xi_0021_0020 = 1
 xi_0021_0021 = 0
 xi_0021_0022 = 0
 xi_0021_0023 = 0
 xi_0021_0024 = 0
 xi_0021_0025 = 0
 xi_0021_0026 <= 1
 xi_0021_0027 = 0
 xi_0021_0028 = 1
 xi_0021_0029 <= 1
 xi_0021_0030 = 0
 xi_0021_0031 = 0
 xi_0021_0032 = 1
 xi_0021_0033 = 0
 xi_0021_0034 = 1
 xi_0021_0035 = 0
 xi_0021_0036 = 0
 xi_0021_0037 = 0
 xi_0021_0038 = 1
 xi_0021_0039 = 1
 xi_0022_0000 = 33
 22 <= xi_0022_0001 <= 24
 1448 <= xi_0022_0002 <= 1474
 xi_0022_0003 = 4
 xi_0022_0004 = 3
 xi_0022_0005 = 1
 xi_0022_0006 = 0
 xi_0022_0007 = 1
 xi_0022_0008 = 1
 xi_0022_0009 = 0
 xi_0022_0010 = 0
 xi_0022_0011 = 0
 xi_0022_0012 = 0
 xi_0022_0013 = 0
 xi_0022_0014 = 1
 xi_0022_0015 = 0
 xi_0022_0016 = 0
 xi_0022_0017 = 1
 xi_0022_0018 = 0
 xi_0022_0019 = 0
 xi_0022_0020 = 0
 xi_0022_0021 = 0
 xi_0022_0022 = 0
 xi_0022_0023 = 1
 xi_0022_0024 = 0
 xi_0022_0025 = 0
 xi_0022_0026 <= 1
 xi_0022_0027 = 0
 xi_0022_0028 = 1
 xi_0022_0029 <= 1
 xi_0022_0030 = 0
 xi_0022_0031 = 1
 xi_0022_0032 = 0
 xi_0022_0033 = 0
 xi_0022_0034 = 0
 xi_0022_0035 = 1
 xi_0022_0036 = 0
 xi_0022_0037 = 0
 xi_0022_0038 = 0
 xi_0022_0039 = 1
 xi_0023_0000 = 34
 58 <= xi_0023_0001 <= 60
 6501 <= xi_0023_0002 <= 6527
 xi_0023_0003 = 4
 xi_0023_0004 = 4
 xi_0023_0005 = 1
 xi_0023_0006 = 1
 xi_0023_0007 = 1
 xi_0023_0008 = 1
 xi_0023_0009 = 0
 xi_0023_0010 = 0
 xi_0023_0011 = 0
 xi_0023_0012 = 0
 xi_0023_0013 = 0
 xi_0023_0014 = 0
 xi_0023_0015 = 0
 xi_0023_0016 = 0
 xi_0023_0017 = 1
 xi_0023_0018 = 0
 xi_0023_0019 = 0
 xi_0023_0020 = 0
 xi_0023_0021 = 0
 xi_0023_0022 = 0
 xi_0023_0023 = 1
 xi_0023_0024 = 0
 xi_0023_0025 = 0
 xi_0023_0026 <= 1
 xi_0023_0027 = 0
 xi_0023_0028 = 0
 xi_0023_0029 <= 1
 xi_0023_0030 = 1
 xi_0023_0031 = 1
 xi_0023_0032 = 0
 xi_0023_0033 = 0
 xi_0023_0034 = 1
 xi_0023_0035 = 0
 xi_0023_0036 = 0
 xi_0023_0037 = 0
 xi_0023_0038 = 1
 xi_0023_0039 = 1
 xi_0024_0000 = 54
 46 <= xi_0024_0001 <= 48
 3025 <= xi_0024_0002 <= 3051
 xi_0024_0003 = 3
 xi_0024_0004 = 4
 xi_0024_0005 = 1
 xi_0024_0006 = 0
 xi_0024_0007 = 0
 xi_0024_0008 = 1
 xi_0024_0009 = 0
 xi_0024_0010 = 0
 xi_0024_0011 = 0
 xi_0024_0012 = 0
 xi_0024_0013 = 0
 xi_0024_0014 = 1
 xi_0024_0015 = 0
 xi_0024_0016 = 0
 xi_0024_0017 = 1
 xi_0024_0018 = 0
 xi_0024_0019 = 0
 xi_0024_0020 = 0
 xi_0024_0021 = 0
 xi_0024_0022 = 1
 xi_0024_0023 = 0
 xi_0024_0024 = 0
 xi_0024_0025 = 0
 xi_0024_0026 <= 1
 xi_0024_0027 = 0
 xi_0024_0028 = 0
 xi_0024_0029 <= 1
 xi_0024_0030 = 1
 xi_0024_0031 = 1
 xi_0024_0032 = 0
 xi_0024_0033 = 0
 xi_0024_0034 = 1
 xi_0024_0035 = 0
 xi_0024_0036 = 0
 xi_0024_0037 = 0
 xi_0024_0038 = 1
 xi_0024_0039 = 1
 xi_0025_0000 = 21
 28 <= xi_0025_0001 <= 30
 3415 <= xi_0025_0002 <= 3441
 xi_0025_0003 = 2
 xi_0025_0004 = 4
 xi_0025_0005 = 1
 xi_0025_0006 = 0
 xi_0025_0007 = 0
 xi_0025_0008 = 1
 xi_0025_0009 = 0
 xi_0025_0010 = 0
 xi_0025_0011 = 0
 xi_0025_0012 = 1
 xi_0025_0013 = 0
 xi_0025_0014 = 0
 xi_0025_0015 = 1
 xi_0025_0016 = 0
 xi_0025_0017 = 1
 xi_0025_0018 = 0
 xi_0025_0019 = 0
 xi_0025_0020 = 0
 xi_0025_0021 = 1
 xi_0025_0022 = 0
 xi_0025_0023 = 0
 xi_0025_0024 = 0
 xi_0025_0025 = 0
 xi_0025_0026 <= 1
 xi_0025_0027 = 0
 xi_0025_0028 = 0
 xi_0025_0029 <= 1
 xi_0025_0030 = 1
 xi_0025_0031 = 0
 xi_0025_0032 = 1
 xi_0025_0033 = 0
 xi_0025_0034 = 0
 xi_0025_0035 = 1
 xi_0025_0036 = 0
 xi_0025_0037 = 0
 xi_0025_0038 = 0
 xi_0025_0039 = 0
 xi_0026_0000 = 22
 22 <= xi_0026_0001 <= 24
 3123 <= xi_0026_0002 <= 3149
 xi_0026_0003 = 4
 xi_0026_0004 = 1
 xi_0026_0005 = 1
 xi_0026_0006 = 0
 xi_0026_0007 = 0
 xi_0026_0008 = 1
 xi_0026_0009 = 0
 xi_0026_0010 = 0
 xi_0026_0011 = 1
 xi_0026_0012 = 0
 xi_0026_0013 = 0
 xi_0026_0014 = 0
 xi_0026_0015 = 0
 xi_0026_0016 = 0
 xi_0026_0017 = 1
 xi_0026_0018 = 0
 xi_0026_0019 = 0
 xi_0026_0020 = 0
 xi_0026_0021 = 1
 xi_0026_0022 = 0
 xi_0026_0023 = 0
 xi_0026_0024 = 0
 xi_0026_0025 = 0
 xi_0026_0026 <= 1
 xi_0026_0027 = 0
 xi_0026_0028 = 1
 xi_0026_0029 <= 1
 xi_0026_0030 = 0
 xi_0026_0031 = 1
 xi_0026_0032 = 0
 xi_0026_0033 = 0
 xi_0026_0034 = 1
 xi_0026_0035 = 0
 xi_0026_0036 = 0
 xi_0026_0037 = 0
 xi_0026_0038 = 1
 xi_0026_0039 = 1
 xi_0027_0000 = 22
 7 <= xi_0027_0001 <= 9
 250 <= xi_0027_0002 <= 276
 xi_0027_0003 = 4
 xi_0027_0004 = 4
 xi_0027_0005 = 1
 xi_0027_0006 = 0
 xi_0027_0007 = 0
 xi_0027_0008 = 1
 xi_0027_0009 = 0
 xi_0027_0010 = 0
 xi_0027_0011 = 0
 xi_0027_0012 = 0
 xi_0027_0013 = 0
 xi_0027_0014 = 0
 xi_0027_0015 = 1
 xi_0027_0016 = 0
 xi_0027_0017 = 0
 xi_0027_0018 = 0
 xi_0027_0019 = 0
 xi_0027_0020 = 0
 xi_0027_0021 = 0
 xi_0027_0022 = 0
 xi_0027_0023 = 1
 xi_0027_0024 = 0
 xi_0027_0025 = 0
 xi_0027_0026 <= 1
 xi_0027_0027 = 0
 xi_0027_0028 = 0
 xi_0027_0029 <= 1
 xi_0027_0030 = 1
 xi_0027_0031 = 0
 xi_0027_0032 = 1
 xi_0027_0033 = 0
 xi_0027_0034 = 1
 xi_0027_0035 = 0
 xi_0027_0036 = 0
 xi_0027_0037 = 0
 xi_0027_0038 = 0
 xi_0027_0039 = 1
 xi_0028_0000 = 25
 22 <= xi_0028_0001 <= 24
 1345 <= xi_0028_0002 <= 1371
 xi_0028_0003 = 4
 xi_0028_0004 = 4
 xi_0028_0005 = 1
 xi_0028_0006 = 0
 xi_0028_0007 = 0
 xi_0028_0008 = 1
 xi_0028_0009 = 0
 xi_0028_0010 = 0
 xi_0028_0011 = 0
 xi_0028_0012 = 0
 xi_0028_0013 = 0
 xi_0028_0014 = 0
 xi_0028_0015 = 1
 xi_0028_0016 = 0
 xi_0028_0017 = 1
 xi_0028_0018 = 0
 xi_0028_0019 = 0
 xi_0028_0020 = 0
 xi_0028_0021 = 0
 xi_0028_0022 = 0
 xi_0028_0023 = 1
 xi_0028_0024 = 0
 xi_0028_0025 = 0
 xi_0028_0026 <= 1
 xi_0028_0027 = 0
 xi_0028_0028 = 0
 xi_0028_0029 <= 1
 xi_0028_0030 = 1
 xi_0028_0031 = 1
 xi_0028_0032 = 0
 xi_0028_0033 = 0
 xi_0028_0034 = 1
 xi_0028_0035 = 0
 xi_0028_0036 = 0
 xi_0028_0037 = 0
 xi_0028_0038 = 0
 xi_0028_0039 = 0
 xi_0029_0000 = 24
 4 <= xi_0029_0001 <= 6
 407 <= xi_0029_0002 <= 433
 xi_0029_0003 = 4
 xi_0029_0004 = 2
 xi_0029_0005 = 1
 xi_0029_0006 = 1
 xi_0029_0007 = 0
 xi_0029_0008 = 1
 xi_0029_0009 = 1
 xi_0029_0010 = 0
 xi_0029_0011 = 1
 xi_0029_0012 = 0
 xi_0029_0013 = 0
 xi_0029_0014 = 0
 xi_0029_0015 = 1
 xi_0029_0016 = 0
 xi_0029_0017 = 1
 xi_0029_0018 = 0
 xi_0029_0019 = 1
 xi_0029_0020 = 0
 xi_0029_0021 = 0
 xi_0029_0022 = 0
 xi_0029_0023 = 0
 xi_0029_0024 = 0
 xi_0029_0025 = 0
 xi_0029_0026 <= 1
 xi_0029_0027 = 0
 xi_0029_0028 = 1
 xi_0029_0029 <= 1
 xi_0029_0030 = 0
 xi_0029_0031 = 0
 xi_0029_0032 = 1
 xi_0029_0033 = 0
 xi_0029_0034 = 0
 xi_0029_0035 = 0
 xi_0029_0036 = 1
 xi_0029_0037 = 0
 xi_0029_0038 = 0
 xi_0029_0039 = 0
 xi_0030_0000 = 26
 10 <= xi_0030_0001 <= 12
 583 <= xi_0030_0002 <= 609
 xi_0030_0003 = 4
 xi_0030_0004 = 1
 xi_0030_0005 = 1
 xi_0030_0006 = 0
 xi_0030_0007 = 0
 xi_0030_0008 = 1
 xi_0030_0009 = 1
 xi_0030_0010 = 0
 xi_0030_0011 = 0
 xi_0030_0012 = 0
 xi_0030_0013 = 0
 xi_0030_0014 = 1
 xi_0030_0015 = 0
 xi_0030_0016 = 0
 xi_0030_0017 = 0
 xi_0030_0018 = 1
 xi_0030_0019 = 0
 xi_0030_0020 = 0
 xi_0030_0021 = 0
 xi_0030_0022 = 0
 xi_0030_0023 = 0
 xi_0030_0024 = 0
 xi_0030_0025 = 0
 xi_0030_0026 <= 1
 xi_0030_0027 = 0
 xi_0030_0028 = 1
 xi_0030_0029 <= 1
 xi_0030_0030 = 0
 xi_0030_0031 = 0
 xi_0030_0032 = 0
 xi_0030_0033 = 1
 xi_0030_0034 = 1
 xi_0030_0035 = 0
 xi_0030_0036 = 0
 xi_0030_0037 = 0
 xi_0030_0038 = 0
 xi_0030_0039 = 0
 xi_0031_0000 = 43
 16 <= xi_0031_0001 <= 18
 1507 <= xi_0031_0002 <= 1533
 xi_0031_0003 = 4
 xi_0031_0004 = 1
 xi_0031_0005 = 1
 xi_0031_0006 = 1
 xi_0031_0007 = 0
 xi_0031_0008 = 1
 xi_0031_0009 = 0
 xi_0031_0010 = 0
 xi_0031_0011 = 0
 xi_0031_0012 = 1
 xi_0031_0013 = 0
 xi_0031_0014 = 1
 xi_0031_0015 = 0
 xi_0031_0016 = 0
 xi_0031_0017 = 0
 xi_0031_0018 = 0
 xi_0031_0019 = 0
 xi_0031_0020 = 0
 xi_0031_0021 = 1
 xi_0031_0022 = 0
 xi_0031_0023 = 0
 xi_0031_0024 = 0
 xi_0031_0025 = 0
 xi_0031_0026 <= 1
 xi_0031_0027 = 0
 xi_0031_0028 = 1
 xi_0031_0029 <= 1
 xi_0031_0030 = 0
 xi_0031_0031 = 1
 xi_0031_0032 = 0
 xi_0031_0033 = 0
 xi_0031_0034 = 1
 xi_0031_0035 = 0
 xi_0031_0036 = 0
 xi_0031_0037 = 0
 xi_0031_0038 = 0
 xi_0031_0039 = 1
 xi_0032_0000 = 44
 16 <= xi_0032_0001 <= 18
 1527 <= xi_0032_0002 <= 1553
 xi_0032_0003 = 4
 xi_0032_0004 = 3
 xi_0032_0005 = 1
 xi_0032_0006 = 0
 xi_0032_0007 = 0
 xi_0032_0008 = 1
 xi_0032_0009 = 1
 xi_0032_0010 = 0
 xi_0032_0011 = 1
 xi_0032_0012 = 0
 xi_0032_0013 = 0
 xi_0032_0014 = 1
 xi_0032_0015 = 0
 xi_0032_0016 = 0
 xi_0032_0017 = 1
 xi_0032_0018 = 0
 xi_0032_0019 = 0
 xi_0032_0020 = 0
 xi_0032_0021 = 1
 xi_0032_0022 = 0
 xi_0032_0023 = 0
 xi_0032_0024 = 0
 xi_0032_0025 = 0
 xi_0032_0026 <= 1
 xi_0032_0027 = 0
 xi_0032_0028 = 0
 xi_0032_0029 <= 1
 xi_0032_0030 = 1
 xi_0032_0031 = 1
 xi_0032_0032 = 0
 xi_0032_0033 = 0
 xi_0032_0034 = 1
 xi_0032_0035 = 0
 xi_0032_0036 = 0
 xi_0032_0037 = 0
 xi_0032_0038 = 1
 xi_0032_0039 = 1
 xi_0033_0000 = 35
 7 <= xi_0033_0001 <= 9
 1523 <= xi_0033_0002 <= 1549
 xi_0033_0003 = 4
 xi_0033_0004 = 2
 xi_0033_0005 = 1
 xi_0033_0006 = 0
 xi_0033_0007 = 0
 xi_0033_0008 = 1
 xi_0033_0009 = 0
 xi_0033_0010 = 0
 xi_0033_0011 = 0
 xi_0033_0012 = 0
 xi_0033_0013 = 0
 xi_0033_0014 = 1
 xi_0033_0015 = 0
 xi_0033_0016 = 0
 xi_0033_0017 = 0
 xi_0033_0018 = 0
 xi_0033_0019 = 0
 xi_0033_0020 = 0
 xi_0033_0021 = 0
 xi_0033_0022 = 0
 xi_0033_0023 = 1
 xi_0033_0024 = 0
 xi_0033_0025 = 0
 xi_0033_0026 <= 1
 xi_0033_0027 = 0
 xi_0033_0028 = 1
 xi_0033_0029 <= 1
 xi_0033_0030 = 0
 xi_0033_0031 = 0
 xi_0033_0032 = 1
 xi_0033_0033 = 0
 xi_0033_0034 = 1
 xi_0033_0035 = 0
 xi_0033_0036 = 0
 xi_0033_0037 = 0
 xi_0033_0038 = 1
 xi_0033_0039 = 1
 xi_0034_0000 = 25
 22 <= xi_0034_0001 <= 24
 1329 <= xi_0034_0002 <= 1355
 xi_0034_0003 = 3
 xi_0034_0004 = 4
 xi_0034_0005 = 1
 xi_0034_0006 = 0
 xi_0034_0007 = 1
 xi_0034_0008 = 1
 xi_0034_0009 = 0
 xi_0034_0010 = 0
 xi_0034_0011 = 0
 xi_0034_0012 = 0
 xi_0034_0013 = 0
 xi_0034_0014 = 1
 xi_0034_0015 = 0
 xi_0034_0016 = 0
 xi_0034_0017 = 0
 xi_0034_0018 = 0
 xi_0034_0019 = 0
 xi_0034_0020 = 0
 xi_0034_0021 = 0
 xi_0034_0022 = 0
 xi_0034_0023 = 1
 xi_0034_0024 = 0
 xi_0034_0025 = 0
 xi_0034_0026 <= 1
 xi_0034_0027 = 0
 xi_0034_0028 = 1
 xi_0034_0029 <= 1
 xi_0034_0030 = 0
 xi_0034_0031 = 0
 xi_0034_0032 = 1
 xi_0034_0033 = 0
 xi_0034_0034 = 1
 xi_0034_0035 = 0
 xi_0034_0036 = 0
 xi_0034_0037 = 0
 xi_0034_0038 = 0
 xi_0034_0039 = 0
 xi_0035_0000 = 32
 25 <= xi_0035_0001 <= 27
 2502 <= xi_0035_0002 <= 2528
 xi_0035_0003 = 4
 xi_0035_0004 = 1
 xi_0035_0005 = 1
 xi_0035_0006 = 1
 xi_0035_0007 = 1
 xi_0035_0008 = 1
 xi_0035_0009 = 0
 xi_0035_0010 = 0
 xi_0035_0011 = 0
 xi_0035_0012 = 0
 xi_0035_0013 = 0
 xi_0035_0014 = 1
 xi_0035_0015 = 0
 xi_0035_0016 = 0
 xi_0035_0017 = 1
 xi_0035_0018 = 1
 xi_0035_0019 = 0
 xi_0035_0020 = 0
 xi_0035_0021 = 0
 xi_0035_0022 = 0
 xi_0035_0023 = 0
 xi_0035_0024 = 0
 xi_0035_0025 = 0
 xi_0035_0026 <= 1
 xi_0035_0027 = 0
 xi_0035_0028 = 1
 xi_0035_0029 <= 1
 xi_0035_0030 = 0
 xi_0035_0031 = 0
 xi_0035_0032 = 1
 xi_0035_0033 = 0
 xi_0035_0034 = 1
 xi_0035_0035 = 0
 xi_0035_0036 = 0
 xi_0035_0037 = 0
 xi_0035_0038 = 0
 xi_0035_0039 = 0
 xi_0036_0000 = 54
 34 <= xi_0036_0001 <= 36
 7406 <= xi_0036_0002 <= 7432
 xi_0036_0003 = 2
 xi_0036_0004 = 2
 xi_0036_0005 = 1
 xi_0036_0006 = 0
 xi_0036_0007 = 0
 xi_0036_0008 = 0
 xi_0036_0009 = 0
 xi_0036_0010 = 0
 xi_0036_0011 = 0
 xi_0036_0012 = 0
 xi_0036_0013 = 0
 xi_0036_0014 = 0
 xi_0036_0015 = 1
 xi_0036_0016 = 0
 xi_0036_0017 = 1
 xi_0036_0018 = 0
 xi_0036_0019 = 0
 xi_0036_0020 = 0
 xi_0036_0021 = 0
 xi_0036_0022 = 0
 xi_0036_0023 = 1
 xi_0036_0024 = 0
 xi_0036_0025 = 0
 xi_0036_0026 <= 1
 xi_0036_0027 = 0
 xi_0036_0028 = 0
 xi_0036_0029 <= 1
 xi_0036_0030 = 1
 xi_0036_0031 = 0
 xi_0036_0032 = 1
 xi_0036_0033 = 0
 xi_0036_0034 = 1
 xi_0036_0035 = 0
 xi_0036_0036 = 0
 xi_0036_0037 = 0
 xi_0036_0038 = 0
 xi_0036_0039 = 0
 xi_0037_0000 = 27
 34 <= xi_0037_0001 <= 36
 3685 <= xi_0037_0002 <= 3711
 xi_0037_0003 = 2
 xi_0037_0004 = 2
 xi_0037_0005 = 1
 xi_0037_0006 = 0
 xi_0037_0007 = 0
 xi_0037_0008 = 1
 xi_0037_0009 = 0
 xi_0037_0010 = 0
 xi_0037_0011 = 0
 xi_0037_0012 = 0
 xi_0037_0013 = 0
 xi_0037_0014 = 1
 xi_0037_0015 = 0
 xi_0037_0016 = 0
 xi_0037_0017 = 1
 xi_0037_0018 = 0
 xi_0037_0019 = 1
 xi_0037_0020 = 0
 xi_0037_0021 = 0
 xi_0037_0022 = 0
 xi_0037_0023 = 0
 xi_0037_0024 = 0
 xi_0037_0025 = 0
 xi_0037_0026 <= 1
 xi_0037_0027 = 0
 xi_0037_0028 = 0
 xi_0037_0029 <= 1
 xi_0037_0030 = 1
 xi_0037_0031 = 0
 xi_0037_0032 = 1
 xi_0037_0033 = 0
 xi_0037_0034 = 1
 xi_0037_0035 = 0
 xi_0037_0036 = 0
 xi_0037_0037 = 0
 xi_0037_0038 = 0
 xi_0037_0039 = 1
 xi_0038_0000 = 23
 22 <= xi_0038_0001 <= 24
 1220 <= xi_0038_0002 <= 1246
 xi_0038_0003 = 4
 xi_0038_0004 = 2
 xi_0038_0005 = 1
 xi_0038_0006 = 0
 xi_0038_0007 = 0
 xi_0038_0008 = 1
 xi_0038_0009 = 0
 xi_0038_0010 = 0
 xi_0038_0011 = 0
 xi_0038_0012 = 0
 xi_0038_0013 = 0
 xi_0038_0014 = 1
 xi_0038_0015 = 0
 xi_0038_0016 = 0
 xi_0038_0017 = 0
 xi_0038_0018 = 0
 xi_0038_0019 = 0
 xi_0038_0020 = 0
 xi_0038_0021 = 0
 xi_0038_0022 = 0
 xi_0038_0023 = 1
 xi_0038_0024 = 0
 xi_0038_0025 = 0
 xi_0038_0026 <= 1
 xi_0038_0027 = 0
 xi_0038_0028 = 1
 xi_0038_0029 <= 1
 xi_0038_0030 = 0
 xi_0038_0031 = 0
 xi_0038_0032 = 1
 xi_0038_0033 = 0
 xi_0038_0034 = 1
 xi_0038_0035 = 0
 xi_0038_0036 = 0
 xi_0038_0037 = 0
 xi_0038_0038 = 1
 xi_0038_0039 = 1
 xi_0039_0000 = 27
 34 <= xi_0039_0001 <= 36
 2587 <= xi_0039_0002 <= 2613
 xi_0039_0003 = 4
 xi_0039_0004 = 2
 xi_0039_0005 = 2
 xi_0039_0006 = 0
 xi_0039_0007 = 0
 xi_0039_0008 = 1
 xi_0039_0009 = 0
 xi_0039_0010 = 0
 xi_0039_0011 = 0
 xi_0039_0012 = 0
 xi_0039_0013 = 0
 xi_0039_0014 = 1
 xi_0039_0015 = 0
 xi_0039_0016 = 0
 xi_0039_0017 = 1
 xi_0039_0018 = 0
 xi_0039_0019 = 0
 xi_0039_0020 = 0
 xi_0039_0021 = 0
 xi_0039_0022 = 0
 xi_0039_0023 = 0
 xi_0039_0024 = 0
 xi_0039_0025 = 1
 xi_0039_0026 <= 1
 xi_0039_0027 = 0
 xi_0039_0028 = 0
 xi_0039_0029 <= 1
 xi_0039_0030 = 1
 xi_0039_0031 = 1
 xi_0039_0032 = 0
 xi_0039_0033 = 0
 xi_0039_0034 = 1
 xi_0039_0035 = 0
 xi_0039_0036 = 0
 xi_0039_0037 = 0
 xi_0039_0038 = 1
 xi_0039_0039 = 1
 xi_0040_0000 = 33
 16 <= xi_0040_0001 <= 18
 1016 <= xi_0040_0002 <= 1042
 xi_0040_0003 = 4
 xi_0040_0004 = 2
 xi_0040_0005 = 1
 xi_0040_0006 = 0
 xi_0040_0007 = 0
 xi_0040_0008 = 1
 xi_0040_0009 = 0
 xi_0040_0010 = 0
 xi_0040_0011 = 0
 xi_0040_0012 = 0
 xi_0040_0013 = 0
 xi_0040_0014 = 1
 xi_0040_0015 = 0
 xi_0040_0016 = 0
 xi_0040_0017 = 1
 xi_0040_0018 = 0
 xi_0040_0019 = 0
 xi_0040_0020 = 0
 xi_0040_0021 = 0
 xi_0040_0022 = 0
 xi_0040_0023 = 1
 xi_0040_0024 = 0
 xi_0040_0025 = 0
 xi_0040_0026 <= 1
 xi_0040_0027 = 0
 xi_0040_0028 = 0
 xi_0040_0029 <= 1
 xi_0040_0030 = 1
 xi_0040_0031 = 0
 xi_0040_0032 = 1
 xi_0040_0033 = 0
 xi_0040_0034 = 1
 xi_0040_0035 = 0
 xi_0040_0036 = 0
 xi_0040_0037 = 0
 xi_0040_0038 = 0
 xi_0040_0039 = 0
 xi_0041_0000 = 38
 46 <= xi_0041_0001 <= 48
 6655 <= xi_0041_0002 <= 6681
 xi_0041_0003 = 4
 xi_0041_0004 = 4
 xi_0041_0005 = 1
 xi_0041_0006 = 1
 xi_0041_0007 = 1
 xi_0041_0008 = 0
 xi_0041_0009 = 0
 xi_0041_0010 = 0
 xi_0041_0011 = 0
 xi_0041_0012 = 0
 xi_0041_0013 = 0
 xi_0041_0014 = 0
 xi_0041_0015 = 0
 xi_0041_0016 = 0
 xi_0041_0017 = 1
 xi_0041_0018 = 1
 xi_0041_0019 = 0
 xi_0041_0020 = 0
 xi_0041_0021 = 0
 xi_0041_0022 = 0
 xi_0041_0023 = 0
 xi_0041_0024 = 0
 xi_0041_0025 = 0
 xi_0041_0026 <= 1
 xi_0041_0027 = 0
 xi_0041_0028 = 0
 xi_0041_0029 <= 1
 xi_0041_0030 = 1
 xi_0041_0031 = 0
 xi_0041_0032 = 1
 xi_0041_0033 = 0
 xi_0041_0034 = 1
 xi_0041_0035 = 0
 xi_0041_0036 = 0
 xi_0041_0037 = 0
 xi_0041_0038 = 1
 xi_0041_0039 = 1
 xi_0042_0000 = 25
 46 <= xi_0042_0001 <= 48
 14395 <= xi_0042_0002 <= 14421
 xi_0042_0003 = 2
 xi_0042_0004 = 2
 xi_0042_0005 = 1
 xi_0042_0006 = 0
 xi_0042_0007 = 1
 xi_0042_0008 = 1
 xi_0042_0009 = 0
 xi_0042_0010 = 0
 xi_0042_0011 = 0
 xi_0042_0012 = 0
 xi_0042_0013 = 0
 xi_0042_0014 = 1
 xi_0042_0015 = 0
 xi_0042_0016 = 0
 xi_0042_0017 = 1
 xi_0042_0018 = 1
 xi_0042_0019 = 0
 xi_0042_0020 = 0
 xi_0042_0021 = 0
 xi_0042_0022 = 0
 xi_0042_0023 = 0
 xi_0042_0024 = 0
 xi_0042_0025 = 0
 xi_0042_0026 <= 1
 xi_0042_0027 = 0
 xi_0042_0028 = 0
 xi_0042_0029 <= 1
 xi_0042_0030 = 1
 xi_0042_0031 = 0
 xi_0042_0032 = 1
 xi_0042_0033 = 0
 xi_0042_0034 = 1
 xi_0042_0035 = 0
 xi_0042_0036 = 0
 xi_0042_0037 = 0
 xi_0042_0038 = 1
 xi_0042_0039 = 1
 xi_0043_0000 = 23
 16 <= xi_0043_0001 <= 18
 1190 <= xi_0043_0002 <= 1216
 xi_0043_0003 = 4
 xi_0043_0004 = 3
 xi_0043_0005 = 1
 xi_0043_0006 = 0
 xi_0043_0007 = 1
 xi_0043_0008 = 1
 xi_0043_0009 = 0
 xi_0043_0010 = 0
 xi_0043_0011 = 0
 xi_0043_0012 = 0
 xi_0043_0013 = 0
 xi_0043_0014 = 0
 xi_0043_0015 = 1
 xi_0043_0016 = 0
 xi_0043_0017 = 1
 xi_0043_0018 = 0
 xi_0043_0019 = 0
 xi_0043_0020 = 0
 xi_0043_0021 = 0
 xi_0043_0022 = 0
 xi_0043_0023 = 1
 xi_0043_0024 = 0
 xi_0043_0025 = 0
 xi_0043_0026 <= 1
 xi_0043_0027 = 0
 xi_0043_0028 = 1
 xi_0043_0029 <= 1
 xi_0043_0030 = 0
 xi_0043_0031 = 1
 xi_0043_0032 = 0
 xi_0043_0033 = 0
 xi_0043_0034 = 1
 xi_0043_0035 = 0
 xi_0043_0036 = 0
 xi_0043_0037 = 0
 xi_0043_0038 = 0
 xi_0043_0039 = 0
 xi_0044_0000 = 23
 46 <= xi_0044_0001 <= 48
 15646 <= xi_0044_0002 <= 15672
 xi_0044_0003 = 2
 xi_0044_0004 = 2
 xi_0044_0005 = 1
 xi_0044_0006 = 0
 xi_0044_0007 = 1
 xi_0044_0008 = 1
 xi_0044_0009 = 0
 xi_0044_0010 = 0
 xi_0044_0011 = 0
 xi_0044_0012 = 0
 xi_0044_0013 = 0
 xi_0044_0014 = 1
 xi_0044_0015 = 0
 xi_0044_0016 = 0
 xi_0044_0017 = 1
 xi_0044_0018 = 1
 xi_0044_0019 = 0
 xi_0044_0020 = 0
 xi_0044_0021 = 0
 xi_0044_0022 = 0
 xi_0044_0023 = 0
 xi_0044_0024 = 0
 xi_0044_0025 = 0
 xi_0044_0026 <= 1
 xi_0044_0027 = 0
 xi_0044_0028 = 0
 xi_0044_0029 <= 1
 xi_0044_0030 = 1
 xi_0044_0031 = 0
 xi_0044_0032 = 1
 xi_0044_0033 = 0
 xi_0044_0034 = 1
 xi_0044_0035 = 0
 xi_0044_0036 = 0
 xi_0044_0037 = 0
 xi_0044_0038 = 1
 xi_0044_0039 = 1
 xi_0045_0000 = 24
 22 <= xi_0045_0001 <= 24
 1181 <= xi_0045_0002 <= 1207
 xi_0045_0003 = 4
 xi_0045_0004 = 4
 xi_0045_0005 = 1
 xi_0045_0006 = 0
 xi_0045_0007 = 0
 xi_0045_0008 = 1
 xi_0045_0009 = 0
 xi_0045_0010 = 0
 xi_0045_0011 = 0
 xi_0045_0012 = 0
 xi_0045_0013 = 0
 xi_0045_0014 = 0
 xi_0045_0015 = 1
 xi_0045_0016 = 0
 xi_0045_0017 = 1
 xi_0045_0018 = 0
 xi_0045_0019 = 0
 xi_0045_0020 = 0
 xi_0045_0021 = 0
 xi_0045_0022 = 0
 xi_0045_0023 = 1
 xi_0045_0024 = 0
 xi_0045_0025 = 0
 xi_0045_0026 <= 1
 xi_0045_0027 = 0
 xi_0045_0028 = 1
 xi_0045_0029 <= 1
 xi_0045_0030 = 0
 xi_0045_0031 = 1
 xi_0045_0032 = 0
 xi_0045_0033 = 0
 xi_0045_0034 = 1
 xi_0045_0035 = 0
 xi_0045_0036 = 0
 xi_0045_0037 = 0
 xi_0045_0038 = 0
 xi_0045_0039 = 0
 xi_0046_0000 = 40
 10 <= xi_0046_0001 <= 12
 658 <= xi_0046_0002 <= 684
 xi_0046_0003 = 4
 xi_0046_0004 = 4
 xi_0046_0005 = 1
 xi_0046_0006 = 1
 xi_0046_0007 = 0
 xi_0046_0008 = 1
 xi_0046_0009 = 0
 xi_0046_0010 = 0
 xi_0046_0011 = 0
 xi_0046_0012 = 0
 xi_0046_0013 = 0
 xi_0046_0014 = 0
 xi_0046_0015 = 1
 xi_0046_0016 = 0
 xi_0046_0017 = 0
 xi_0046_0018 = 0
 xi_0046_0019 = 1
 xi_0046_0020 = 0
 xi_0046_0021 = 0
 xi_0046_0022 = 0
 xi_0046_0023 = 0
 xi_0046_0024 = 0
 xi_0046_0025 = 0
 xi_0046_0026 <= 1
 xi_0046_0027 = 0
 xi_0046_0028 = 0
 xi_0046_0029 <= 1
 xi_0046_0030 = 1
 xi_0046_0031 = 1
 xi_0046_0032 = 0
 xi_0046_0033 = 0
 xi_0046_0034 = 1
 xi_0046_0035 = 0
 xi_0046_0036 = 0
 xi_0046_0037 = 0
 xi_0046_0038 = 1
 xi_0046_0039 = 1
 xi_0047_0000 = 23
 22 <= xi_0047_0001 <= 24
 3208 <= xi_0047_0002 <= 3234
 xi_0047_0003 = 4
 xi_0047_0004 = 4
 xi_0047_0005 = 1
 xi_0047_0006 = 0
 xi_0047_0007 = 1
 xi_0047_0008 = 1
 xi_0047_0009 = 0
 xi_0047_0010 = 0
 xi_0047_0011 = 0
 xi_0047_0012 = 0
 xi_0047_0013 = 0
 xi_0047_0014 = 0
 xi_0047_0015 = 1
 xi_0047_0016 = 0
 xi_0047_0017 = 0
 xi_0047_0018 = 0
 xi_0047_0019 = 0
 xi_0047_0020 = 0
 xi_0047_0021 = 1
 xi_0047_0022 = 0
 xi_0047_0023 = 0
 xi_0047_0024 = 0
 xi_0047_0025 = 0
 xi_0047_0026 <= 1
 xi_0047_0027 = 0
 xi_0047_0028 = 1
 xi_0047_0029 <= 1
 xi_0047_0030 = 0
 xi_0047_0031 = 1
 xi_0047_0032 = 0
 xi_0047_0033 = 0
 xi_0047_0034 = 1
 xi_0047_0035 = 0
 xi_0047_0036 = 0
 xi_0047_0037 = 0
 xi_0047_0038 = 0
 xi_0047_0039 = 0
 xi_0048_0000 = 23
 34 <= xi_0048_0001 <= 36
 6203 <= xi_0048_0002 <= 6229
 xi_0048_0003 = 4
 xi_0048_0004 = 4
 xi_0048_0005 = 2
 xi_0048_0006 = 0
 xi_0048_0007 = 1
 xi_0048_0008 = 1
 xi_0048_0009 = 0
 xi_0048_0010 = 1
 xi_0048_0011 = 0
 xi_0048_0012 = 1
 xi_0048_0013 = 0
 xi_0048_0014 = 0
 xi_0048_0015 = 1
 xi_0048_0016 = 0
 xi_0048_0017 = 0
 xi_0048_0018 = 0
 xi_0048_0019 = 0
 xi_0048_0020 = 0
 xi_0048_0021 = 1
 xi_0048_0022 = 0
 xi_0048_0023 = 0
 xi_0048_0024 = 0
 xi_0048_0025 = 0
 xi_0048_0026 <= 1
 xi_0048_0027 = 0
 xi_0048_0028 = 1
 xi_0048_0029 <= 1
 xi_0048_0030 = 0
 xi_0048_0031 = 1
 xi_0048_0032 = 0
 xi_0048_0033 = 0
 xi_0048_0034 = 1
 xi_0048_0035 = 0
 xi_0048_0036 = 0
 xi_0048_0037 = 0
 xi_0048_0038 = 0
 xi_0048_0039 = 0
 xi_0049_0000 = 37
 34 <= xi_0049_0001 <= 36
 12363 <= xi_0049_0002 <= 12389
 xi_0049_0003 = 1
 xi_0049_0004 = 4
 xi_0049_0005 = 1
 xi_0049_0006 = 0
 xi_0049_0007 = 1
 xi_0049_0008 = 1
 xi_0049_0009 = 0
 xi_0049_0010 = 0
 xi_0049_0011 = 0
 xi_0049_0012 = 0
 xi_0049_0013 = 0
 xi_0049_0014 = 0
 xi_0049_0015 = 0
 xi_0049_0016 = 0
 xi_0049_0017 = 1
 xi_0049_0018 = 0
 xi_0049_0019 = 0
 xi_0049_0020 = 0
 xi_0049_0021 = 0
 xi_0049_0022 = 0
 xi_0049_0023 = 1
 xi_0049_0024 = 0
 xi_0049_0025 = 0
 xi_0049_0026 <= 1
 xi_0049_0027 = 0
 xi_0049_0028 = 0
 xi_0049_0029 <= 1
 xi_0049_0030 = 1
 xi_0049_0031 = 0
 xi_0049_0032 = 1
 xi_0049_0033 = 0
 xi_0049_0034 = 1
 xi_0049_0035 = 0
 xi_0049_0036 = 0
 xi_0049_0037 = 0
 xi_0049_0038 = 1
 xi_0049_0039 = 1
 xi_0050_0000 = 53
 22 <= xi_0050_0001 <= 24
 4844 <= xi_0050_0002 <= 4870
 xi_0050_0003 = 3
 xi_0050_0004 = 4
 xi_0050_0005 = 2
 xi_0050_0006 = 1
 xi_0050_0007 = 0
 xi_0050_0008 = 0
 xi_0050_0009 = 0
 xi_0050_0010 = 0
 xi_0050_0011 = 0
 xi_0050_0012 = 0
 xi_0050_0013 = 0
 xi_0050_0014 = 0
 xi_0050_0015 = 0
 xi_0050_0016 = 0
 xi_0050_0017 = 1
 xi_0050_0018 = 0
 xi_0050_0019 = 0
 xi_0050_0020 = 0
 xi_0050_0021 = 0
 xi_0050_0022 = 0
 xi_0050_0023 = 1
 xi_0050_0024 = 0
 xi_0050_0025 = 0
 xi_0050_0026 <= 1
 xi_0050_0027 = 0
 xi_0050_0028 = 0
 xi_0050_0029 <= 1
 xi_0050_0030 = 1
 xi_0050_0031 = 1
 xi_0050_0032 = 0
 xi_0050_0033 = 0
 xi_0050_0034 = 1
 xi_0050_0035 = 0
 xi_0050_0036 = 0
 xi_0050_0037 = 0
 xi_0050_0038 = 1
 xi_0050_0039 = 1
 xi_0051_0000 = 23
 34 <= xi_0051_0001 <= 36
 7101 <= xi_0051_0002 <= 7127
 xi_0051_0003 = 2
 xi_0051_0004 = 4
 xi_0051_0005 = 2
 xi_0051_0006 = 0
 xi_0051_0007 = 1
 xi_0051_0008 = 1
 xi_0051_0009 = 0
 xi_0051_0010 = 1
 xi_0051_0011 = 0
 xi_0051_0012 = 0
 xi_0051_0013 = 0
 xi_0051_0014 = 0
 xi_0051_0015 = 1
 xi_0051_0016 = 0
 xi_0051_0017 = 1
 xi_0051_0018 = 0
 xi_0051_0019 = 0
 xi_0051_0020 = 0
 xi_0051_0021 = 1
 xi_0051_0022 = 0
 xi_0051_0023 = 0
 xi_0051_0024 = 0
 xi_0051_0025 = 0
 xi_0051_0026 <= 1
 xi_0051_0027 = 0
 xi_0051_0028 = 1
 xi_0051_0029 <= 1
 xi_0051_0030 = 0
 xi_0051_0031 = 1
 xi_0051_0032 = 0
 xi_0051_0033 = 0
 xi_0051_0034 = 1
 xi_0051_0035 = 0
 xi_0051_0036 = 0
 xi_0051_0037 = 0
 xi_0051_0038 = 0
 xi_0051_0039 = 0
 xi_0052_0000 = 22
 22 <= xi_0052_0001 <= 24
 3066 <= xi_0052_0002 <= 3092
 xi_0052_0003 = 3
 xi_0052_0004 = 2
 xi_0052_0005 = 1
 xi_0052_0006 = 0
 xi_0052_0007 = 1
 xi_0052_0008 = 1
 xi_0052_0009 = 0
 xi_0052_0010 = 0
 xi_0052_0011 = 0
 xi_0052_0012 = 0
 xi_0052_0013 = 0
 xi_0052_0014 = 0
 xi_0052_0015 = 1
 xi_0052_0016 = 0
 xi_0052_0017 = 1
 xi_0052_0018 = 0
 xi_0052_0019 = 0
 xi_0052_0020 = 1
 xi_0052_0021 = 0
 xi_0052_0022 = 0
 xi_0052_0023 = 0
 xi_0052_0024 = 0
 xi_0052_0025 = 0
 xi_0052_0026 <= 1
 xi_0052_0027 = 0
 xi_0052_0028 = 1
 xi_0052_0029 <= 1
 xi_0052_0030 = 0
 xi_0052_0031 = 0
 xi_0052_0032 = 1
 xi_0052_0033 = 0
 xi_0052_0034 = 0
 xi_0052_0035 = 1
 xi_0052_0036 = 0
 xi_0052_0037 = 0
 xi_0052_0038 = 0
 xi_0052_0039 = 1
 xi_0053_0000 = 20
 22 <= xi_0053_0001 <= 24
 2692 <= xi_0053_0002 <= 2718
 xi_0053_0003 = 3
 xi_0053_0004 = 4
 xi_0053_0005 = 1
 xi_0053_0006 = 0
 xi_0053_0007 = 1
 xi_0053_0008 = 1
 xi_0053_0009 = 0
 xi_0053_0010 = 0
 xi_0053_0011 = 0
 xi_0053_0012 = 0
 xi_0053_0013 = 0
 xi_0053_0014 = 0
 xi_0053_0015 = 1
 xi_0053_0016 = 0
 xi_0053_0017 = 0
 xi_0053_0018 = 0
 xi_0053_0019 = 0
 xi_0053_0020 = 0
 xi_0053_0021 = 0
 xi_0053_0022 = 0
 xi_0053_0023 = 1
 xi_0053_0024 = 0
 xi_0053_0025 = 0
 xi_0053_0026 <= 1
 xi_0053_0027 = 0
 xi_0053_0028 = 0
 xi_0053_0029 <= 1
 xi_0053_0030 = 1
 xi_0053_0031 = 0
 xi_0053_0032 = 1
 xi_0053_0033 = 0
 xi_0053_0034 = 1
 xi_0053_0035 = 0
 xi_0053_0036 = 0
 xi_0053_0037 = 0
 xi_0053_0038 = 0
 xi_0053_0039 = 0
 xi_0054_0000 = 33
 46 <= xi_0054_0001 <= 48
 4818 <= xi_0054_0002 <= 4844
 xi_0054_0003 = 3
 xi_0054_0004 = 2
 xi_0054_0005 = 1
 xi_0054_0006 = 0
 xi_0054_0007 = 1
 xi_0054_0008 = 1
 xi_0054_0009 = 0
 xi_0054_0010 = 0
 xi_0054_0011 = 1
 xi_0054_0012 = 0
 xi_0054_0013 = 0
 xi_0054_0014 = 0
 xi_0054_0015 = 1
 xi_0054_0016 = 1
 xi_0054_0017 = 1
 xi_0054_0018 = 1
 xi_0054_0019 = 0
 xi_0054_0020 = 0
 xi_0054_0021 = 0
 xi_0054_0022 = 0
 xi_0054_0023 = 0
 xi_0054_0024 = 0
 xi_0054_0025 = 0
 xi_0054_0026 <= 1
 xi_0054_0027 = 0
 xi_0054_0028 = 0
 xi_0054_0029 <= 1
 xi_0054_0030 = 1
 xi_0054_0031 = 1
 xi_0054_0032 = 0
 xi_0054_0033 = 0
 xi_0054_0034 = 1
 xi_0054_0035 = 0
 xi_0054_0036 = 0
 xi_0054_0037 = 0
 xi_0054_0038 = 1
 xi_0054_0039 = 1
 xi_0055_0000 = 46
 10 <= xi_0055_0001 <= 12
 671 <= xi_0055_0002 <= 697
 xi_0055_0003 = 4
 xi_0055_0004 = 2
 xi_0055_0005 = 2
 xi_0055_0006 = 0
 xi_0055_0007 = 1
 xi_0055_0008 = 1
 xi_0055_0009 = 1
 xi_0055_0010 = 0
 xi_0055_0011 = 1
 xi_0055_0012 = 0
 xi_0055_0013 = 0
 xi_0055_0014 = 1
 xi_0055_0015 = 0
 xi_0055_0016 = 0
 xi_0055_0017 = 1
 xi_0055_0018 = 0
 xi_0055_0019 = 0
 xi_0055_0020 = 0
 xi_0055_0021 = 0
 xi_0055_0022 = 0
 xi_0055_0023 = 1
 xi_0055_0024 = 0
 xi_0055_0025 = 0
 xi_0055_0026 <= 1
 xi_0055_0027 = 0
 xi_0055_0028 = 1
 xi_0055_0029 <= 1
 xi_0055_0030 = 0
 xi_0055_0031 = 1
 xi_0055_0032 = 0
 xi_0055_0033 = 0
 xi_0055_0034 = 1
 xi_0055_0035 = 0
 xi_0055_0036 = 0
 xi_0055_0037 = 0
 xi_0055_0038 = 1
 xi_0055_0039 = 1
 xi_0056_0000 = 31
 22 <= xi_0056_0001 <= 24
 3135 <= xi_0056_0002 <= 3161
 xi_0056_0003 = 4
 xi_0056_0004 = 2
 xi_0056_0005 = 1
 xi_0056_0006 = 0
 xi_0056_0007 = 1
 xi_0056_0008 = 1
 xi_0056_0009 = 1
 xi_0056_0010 = 0
 xi_0056_0011 = 0
 xi_0056_0012 = 0
 xi_0056_0013 = 0
 xi_0056_0014 = 0
 xi_0056_0015 = 1
 xi_0056_0016 = 0
 xi_0056_0017 = 1
 xi_0056_0018 = 1
 xi_0056_0019 = 0
 xi_0056_0020 = 0
 xi_0056_0021 = 0
 xi_0056_0022 = 0
 xi_0056_0023 = 0
 xi_0056_0024 = 0
 xi_0056_0025 = 0
 xi_0056_0026 <= 1
 xi_0056_0027 = 0
 xi_0056_0028 = 0
 xi_0056_0029 <= 1
 xi_0056_0030 = 1
 xi_0056_0031 = 1
 xi_0056_0032 = 0
 xi_0056_0033 = 0
 xi_0056_0034 = 1
 xi_0056_0035 = 0
 xi_0056_0036 = 0
 xi_0056_0037 = 0
 xi_0056_0038 = 1
 xi_0056_0039 = 1
 xi_0057_0000 = 35
 22 <= xi_0057_0001 <= 24
 1355 <= xi_0057_0002 <= 1381
 xi_0057_0003 = 4
 xi_0057_0004 = 2
 xi_0057_0005 = 1
 xi_0057_0006 = 0
 xi_0057_0007 = 0
 xi_0057_0008 = 1
 xi_0057_0009 = 0
 xi_0057_0010 = 0
 xi_0057_0011 = 0
 xi_0057_0012 = 0
 xi_0057_0013 = 0
 xi_0057_0014 = 1
 xi_0057_0015 = 0
 xi_0057_0016 = 0
 xi_0057_0017 = 1
 xi_0057_0018 = 0
 xi_0057_0019 = 0
 xi_0057_0020 = 0
 xi_0057_0021 = 0
 xi_0057_0022 = 0
 xi_0057_0023 = 1
 xi_0057_0024 = 0
 xi_0057_0025 = 0
 xi_0057_0026 <= 1
 xi_0057_0027 = 0
 xi_0057_0028 = 0
 xi_0057_0029 <= 1
 xi_0057_0030 = 1
 xi_0057_0031 = 1
 xi_0057_0032 = 0
 xi_0057_0033 = 0
 xi_0057_0034 = 1
 xi_0057_0035 = 0
 xi_0057_0036 = 0
 xi_0057_0037 = 0
 xi_0057_0038 = 0
 xi_0057_0039 = 0
 xi_0058_0000 = 28
 16 <= xi_0058_0001 <= 18
 2252 <= xi_0058_0002 <= 2278
 xi_0058_0003 = 3
 xi_0058_0004 = 3
 xi_0058_0005 = 2
 xi_0058_0006 = 0
 xi_0058_0007 = 0
 xi_0058_0008 = 1
 xi_0058_0009 = 0
 xi_0058_0010 = 0
 xi_0058_0011 = 0
 xi_0058_0012 = 0
 xi_0058_0013 = 0
 xi_0058_0014 = 1
 xi_0058_0015 = 0
 xi_0058_0016 = 0
 xi_0058_0017 = 1
 xi_0058_0018 = 0
 xi_0058_0019 = 0
 xi_0058_0020 = 0
 xi_0058_0021 = 0
 xi_0058_0022 = 0
 xi_0058_0023 = 1
 xi_0058_0024 = 0
 xi_0058_0025 = 0
 xi_0058_0026 <= 1
 xi_0058_0027 = 0
 xi_0058_0028 = 1
 xi_0058_0029 <= 1
 xi_0058_0030 = 0
 xi_0058_0031 = 0
 xi_0058_0032 = 1
 xi_0058_0033 = 0
 xi_0058_0034 = 0
 xi_0058_0035 = 1
 xi_0058_0036 = 0
 xi_0058_0037 = 0
 xi_0058_0038 = 0
 xi_0058_0039 = 0
 xi_0059_0000 = 54
 22 <= xi_0059_0001 <= 24
 2229 <= xi_0059_0002 <= 2255
 xi_0059_0003 = 4
 xi_0059_0004 = 1
 xi_0059_0005 = 1
 xi_0059_0006 = 0
 xi_0059_0007 = 0
 xi_0059_0008 = 1
 xi_0059_0009 = 0
 xi_0059_0010 = 0
 xi_0059_0011 = 0
 xi_0059_0012 = 0
 xi_0059_0013 = 0
 xi_0059_0014 = 1
 xi_0059_0015 = 0
 xi_0059_0016 = 0
 xi_0059_0017 = 1
 xi_0059_0018 = 0
 xi_0059_0019 = 0
 xi_0059_0020 = 0
 xi_0059_0021 = 0
 xi_0059_0022 = 0
 xi_0059_0023 = 1
 xi_0059_0024 = 0
 xi_0059_0025 = 0
 xi_0059_0026 <= 1
 xi_0059_0027 = 0
 xi_0059_0028 = 1
 xi_0059_0029 <= 1
 xi_0059_0030 = 0
 xi_0059_0031 = 1
 xi_0059_0032 = 0
 xi_0059_0033 = 0
 xi_0059_0034 = 1
 xi_0059_0035 = 0
 xi_0059_0036 = 0
 xi_0059_0037 = 0
 xi_0059_0038 = 1
 xi_0059_0039 = 1
 xi_0060_0000 = 24
 22 <= xi_0060_0001 <= 24
 5717 <= xi_0060_0002 <= 5743
 xi_0060_0003 = 2
 xi_0060_0004 = 4
 xi_0060_0005 = 2
 xi_0060_0006 = 0
 xi_0060_0007 = 1
 xi_0060_0008 = 1
 xi_0060_0009 = 0
 xi_0060_0010 = 1
 xi_0060_0011 = 0
 xi_0060_0012 = 0
 xi_0060_0013 = 0
 xi_0060_0014 = 0
 xi_0060_0015 = 0
 xi_0060_0016 = 0
 xi_0060_0017 = 1
 xi_0060_0018 = 0
 xi_0060_0019 = 1
 xi_0060_0020 = 0
 xi_0060_0021 = 0
 xi_0060_0022 = 0
 xi_0060_0023 = 0
 xi_0060_0024 = 0
 xi_0060_0025 = 0
 xi_0060_0026 <= 1
 xi_0060_0027 = 0
 xi_0060_0028 = 1
 xi_0060_0029 <= 1
 xi_0060_0030 = 0
 xi_0060_0031 = 0
 xi_0060_0032 = 1
 xi_0060_0033 = 0
 xi_0060_0034 = 1
 xi_0060_0035 = 0
 xi_0060_0036 = 0
 xi_0060_0037 = 0
 xi_0060_0038 = 0
 xi_0060_0039 = 0
 xi_0061_0000 = 23
 10 <= xi_0061_0001 <= 12
 1174 <= xi_0061_0002 <= 1200
 xi_0061_0003 = 4
 xi_0061_0004 = 4
 xi_0061_0005 = 1
 xi_0061_0006 = 0
 xi_0061_0007 = 1
 xi_0061_0008 = 1
 xi_0061_0009 = 0
 xi_0061_0010 = 0
 xi_0061_0011 = 1
 xi_0061_0012 = 0
 xi_0061_0013 = 0
 xi_0061_0014 = 0
 xi_0061_0015 = 1
 xi_0061_0016 = 0
 xi_0061_0017 = 1
 xi_0061_0018 = 0
 xi_0061_0019 = 1
 xi_0061_0020 = 0
 xi_0061_0021 = 0
 xi_0061_0022 = 0
 xi_0061_0023 = 0
 xi_0061_0024 = 0
 xi_0061_0025 = 0
 xi_0061_0026 <= 1
 xi_0061_0027 = 0
 xi_0061_0028 = 0
 xi_0061_0029 <= 1
 xi_0061_0030 = 1
 xi_0061_0031 = 1
 xi_0061_0032 = 0
 xi_0061_0033 = 0
 xi_0061_0034 = 1
 xi_0061_0035 = 0
 xi_0061_0036 = 0
 xi_0061_0037 = 0
 xi_0061_0038 = 0
 xi_0061_0039 = 0
 xi_0062_0000 = 29
 22 <= xi_0062_0001 <= 24
 1167 <= xi_0062_0002 <= 1193
 xi_0062_0003 = 1
 xi_0062_0004 = 4
 xi_0062_0005 = 2
 xi_0062_0006 = 0
 xi_0062_0007 = 0
 xi_0062_0008 = 1
 xi_0062_0009 = 1
 xi_0062_0010 = 0
 xi_0062_0011 = 0
 xi_0062_0012 = 1
 xi_0062_0013 = 0
 xi_0062_0014 = 0
 xi_0062_0015 = 1
 xi_0062_0016 = 1
 xi_0062_0017 = 0
 xi_0062_0018 = 0
 xi_0062_0019 = 0
 xi_0062_0020 = 0
 xi_0062_0021 = 0
 xi_0062_0022 = 0
 xi_0062_0023 = 1
 xi_0062_0024 = 0
 xi_0062_0025 = 0
 xi_0062_0026 <= 1
 xi_0062_0027 = 0
 xi_0062_0028 = 0
 xi_0062_0029 <= 1
 xi_0062_0030 = 1
 xi_0062_0031 = 1
 xi_0062_0032 = 0
 xi_0062_0033 = 0
 xi_0062_0034 = 1
 xi_0062_0035 = 0
 xi_0062_0036 = 0
 xi_0062_0037 = 0
 xi_0062_0038 = 0
 xi_0062_0039 = 0
 xi_0063_0000 = 40
 26 <= xi_0063_0001 <= 28
 7798 <= xi_0063_0002 <= 7824
 xi_0063_0003 = 3
 xi_0063_0004 = 4
 xi_0063_0005 = 2
 xi_0063_0006 = 1
 xi_0063_0007 = 1
 xi_0063_0008 = 1
 xi_0063_0009 = 1
 xi_0063_0010 = 0
 xi_0063_0011 = 1
 xi_0063_0012 = 0
 xi_0063_0013 = 1
 xi_0063_0014 = 0
 xi_0063_0015 = 1
 xi_0063_0016 = 0
 xi_0063_0017 = 1
 xi_0063_0018 = 0
 xi_0063_0019 = 0
 xi_0063_0020 = 0
 xi_0063_0021 = 0
 xi_0063_0022 = 0
 xi_0063_0023 = 0
 xi_0063_0024 = 0
 xi_0063_0025 = 0
 xi_0063_0026 <= 1
 xi_0063_0027 = 1
 xi_0063_0028 = 1
 xi_0063_0029 <= 1
 xi_0063_0030 = 0
 xi_0063_0031 = 1
 xi_0063_0032 = 0
 xi_0063_0033 = 0
 xi_0063_0034 = 1
 xi_0063_0035 = 0
 xi_0063_0036 = 0
 xi_0063_0037 = 0
 xi_0063_0038 = 1
 xi_0063_0039 = 1
 xi_0064_0000 = 34
 34 <= xi_0064_0001 <= 36
 1816 <= xi_0064_0002 <= 1842
 xi_0064_0003 = 4
 xi_0064_0004 = 4
 xi_0064_0005 = 1
 xi_0064_0006 = 0
 xi_0064_0007 = 1
 xi_0064_0008 = 1
 xi_0064_0009 = 0
 xi_0064_0010 = 0
 xi_0064_0011 = 0
 xi_0064_0012 = 0
 xi_0064_0013 = 0
 xi_0064_0014 = 1
 xi_0064_0015 = 0
 xi_0064_0016 = 0
 xi_0064_0017 = 1
 xi_0064_0018 = 0
 xi_0064_0019 = 0
 xi_0064_0020 = 0
 xi_0064_0021 = 0
 xi_0064_0022 = 0
 xi_0064_0023 = 1
 xi_0064_0024 = 0
 xi_0064_0025 = 0
 xi_0064_0026 <= 1
 xi_0064_0027 = 0
 xi_0064_0028 = 1
 xi_0064_0029 <= 1
 xi_0064_0030 = 0
 xi_0064_0031 = 1
 xi_0064_0032 = 0
 xi_0064_0033 = 0
 xi_0064_0034 = 1
 xi_0064_0035 = 0
 xi_0064_0036 = 0
 xi_0064_0037 = 0
 xi_0064_0038 = 0
 xi_0064_0039 = 0
 xi_0065_0000 = 27
 34 <= xi_0065_0001 <= 36
 7954 <= xi_0065_0002 <= 7980
 xi_0065_0003 = 4
 xi_0065_0004 = 4
 xi_0065_0005 = 2
 xi_0065_0006 = 0
 xi_0065_0007 = 1
 xi_0065_0008 = 0
 xi_0065_0009 = 0
 xi_0065_0010 = 0
 xi_0065_0011 = 0
 xi_0065_0012 = 0
 xi_0065_0013 = 0
 xi_0065_0014 = 0
 xi_0065_0015 = 1
 xi_0065_0016 = 0
 xi_0065_0017 = 1
 xi_0065_0018 = 1
 xi_0065_0019 = 0
 xi_0065_0020 = 0
 xi_0065_0021 = 0
 xi_0065_0022 = 0
 xi_0065_0023 = 0
 xi_0065_0024 = 0
 xi_0065_0025 = 0
 xi_0065_0026 <= 1
 xi_0065_0027 = 0
 xi_0065_0028 = 1
 xi_0065_0029 <= 1
 xi_0065_0030 = 0
 xi_0065_0031 = 1
 xi_0065_0032 = 0
 xi_0065_0033 = 0
 xi_0065_0034 = 1
 xi_0065_0035 = 0
 xi_0065_0036 = 0
 xi_0065_0037 = 0
 xi_0065_0038 = 1
 xi_0065_0039 = 1
 xi_0066_0000 = 26
 34 <= xi_0066_0001 <= 36
 10948 <= xi_0066_0002 <= 10974
 xi_0066_0003 = 4
 xi_0066_0004 = 2
 xi_0066_0005 = 2
 xi_0066_0006 = 0
 xi_0066_0007 = 1
 xi_0066_0008 = 1
 xi_0066_0009 = 0
 xi_0066_0010 = 0
 xi_0066_0011 = 0
 xi_0066_0012 = 0
 xi_0066_0013 = 0
 xi_0066_0014 = 1
 xi_0066_0015 = 0
 xi_0066_0016 = 1
 xi_0066_0017 = 1
 xi_0066_0018 = 0
 xi_0066_0019 = 0
 xi_0066_0020 = 0
 xi_0066_0021 = 1
 xi_0066_0022 = 0
 xi_0066_0023 = 0
 xi_0066_0024 = 0
 xi_0066_0025 = 0
 xi_0066_0026 <= 1
 xi_0066_0027 = 0
 xi_0066_0028 = 0
 xi_0066_0029 <= 1
 xi_0066_0030 = 1
 xi_0066_0031 = 1
 xi_0066_0032 = 0
 xi_0066_0033 = 0
 xi_0066_0034 = 1
 xi_0066_0035 = 0
 xi_0066_0036 = 0
 xi_0066_0037 = 0
 xi_0066_0038 = 0
 xi_0066_0039 = 0
 xi_0067_0000 = 22
 10 <= xi_0067_0001 <= 12
 1832 <= xi_0067_0002 <= 1858
 xi_0067_0003 = 4
 xi_0067_0004 = 1
 xi_0067_0005 = 1
 xi_0067_0006 = 0
 xi_0067_0007 = 0
 xi_0067_0008 = 1
 xi_0067_0009 = 0
 xi_0067_0010 = 0
 xi_0067_0011 = 0
 xi_0067_0012 = 0
 xi_0067_0013 = 0
 xi_0067_0014 = 0
 xi_0067_0015 = 1
 xi_0067_0016 = 0
 xi_0067_0017 = 1
 xi_0067_0018 = 0
 xi_0067_0019 = 0
 xi_0067_0020 = 0
 xi_0067_0021 = 1
 xi_0067_0022 = 0
 xi_0067_0023 = 0
 xi_0067_0024 = 0
 xi_0067_0025 = 0
 xi_0067_0026 <= 1
 xi_0067_0027 = 0
 xi_0067_0028 = 1
 xi_0067_0029 <= 1
 xi_0067_0030 = 0
 xi_0067_0031 = 1
 xi_0067_0032 = 0
 xi_0067_0033 = 0
 xi_0067_0034 = 1
 xi_0067_0035 = 0
 xi_0067_0036 = 0
 xi_0067_0037 = 0
 xi_0067_0038 = 0
 xi_0067_0039 = 0
 xi_0068_0000 = 27
 58 <= xi_0068_0001 <= 60
 9131 <= xi_0068_0002 <= 9157
 xi_0068_0003 = 2
 xi_0068_0004 = 2
 xi_0068_0005 = 1
 xi_0068_0006 = 0
 xi_0068_0007 = 0
 xi_0068_0008 = 0
 xi_0068_0009 = 0
 xi_0068_0010 = 0
 xi_0068_0011 = 0
 xi_0068_0012 = 0
 xi_0068_0013 = 0
 xi_0068_0014 = 0
 xi_0068_0015 = 0
 xi_0068_0016 = 0
 xi_0068_0017 = 1
 xi_0068_0018 = 0
 xi_0068_0019 = 0
 xi_0068_0020 = 1
 xi_0068_0021 = 0
 xi_0068_0022 = 0
 xi_0068_0023 = 0
 xi_0068_0024 = 0
 xi_0068_0025 = 0
 xi_0068_0026 <= 1
 xi_0068_0027 = 0
 xi_0068_0028 = 0
 xi_0068_0029 <= 1
 xi_0068_0030 = 1
 xi_0068_0031 = 0
 xi_0068_0032 = 1
 xi_0068_0033 = 0
 xi_0068_0034 = 1
 xi_0068_0035 = 0
 xi_0068_0036 = 0
 xi_0068_0037 = 0
 xi_0068_0038 = 1
 xi_0068_0039 = 1
 xi_0069_0000 = 23
 16 <= xi_0069_0001 <= 18
 1917 <= xi_0069_0002 <= 1943
 xi_0069_0003 = 4
 xi_0069_0004 = 4
 xi_0069_0005 = 1
 xi_0069_0006 = 0
 xi_0069_0007 = 0
 xi_0069_0008 = 1
 xi_0069_0009 = 0
 xi_0069_0010 = 0
 xi_0069_0011 = 0
 xi_0069_0012 = 0
 xi_0069_0013 = 0
 xi_0069_0014 = 1
 xi_0069_0015 = 0
 xi_0069_0016 = 0
 xi_0069_0017 = 1
 xi_0069_0018 = 0
 xi_0069_0019 = 0
 xi_0069_0020 = 0
 xi_0069_0021 = 0
 xi_0069_0022 = 0
 xi_0069_0023 = 0
 xi_0069_0024 = 0
 xi_0069_0025 = 1
 xi_0069_0026 <= 1
 xi_0069_0027 = 0
 xi_0069_0028 = 1
 xi_0069_0029 <= 1
 xi_0069_0030 = 0
 xi_0069_0031 = 1
 xi_0069_0032 = 0
 xi_0069_0033 = 0
 xi_0069_0034 = 1
 xi_0069_0035 = 0
 xi_0069_0036 = 0
 xi_0069_0037 = 0
 xi_0069_0038 = 0
 xi_0069_0039 = 0
 xi_0070_0000 = 25
 16 <= xi_0070_0001 <= 18
 1856 <= xi_0070_0002 <= 1882
 xi_0070_0003 = 4
 xi_0070_0004 = 4
 xi_0070_0005 = 2
 xi_0070_0006 = 0
 xi_0070_0007 = 0
 xi_0070_0008 = 1
 xi_0070_0009 = 0
 xi_0070_0010 = 0
 xi_0070_0011 = 1
 xi_0070_0012 = 0
 xi_0070_0013 = 0
 xi_0070_0014 = 0
 xi_0070_0015 = 1
 xi_0070_0016 = 0
 xi_0070_0017 = 1
 xi_0070_0018 = 0
 xi_0070_0019 = 0
 xi_0070_0020 = 1
 xi_0070_0021 = 0
 xi_0070_0022 = 0
 xi_0070_0023 = 0
 xi_0070_0024 = 0
 xi_0070_0025 = 0
 xi_0070_0026 <= 1
 xi_0070_0027 = 0
 xi_0070_0028 = 0
 xi_0070_0029 <= 1
 xi_0070_0030 = 1
 xi_0070_0031 = 1
 xi_0070_0032 = 0
 xi_0070_0033 = 0
 xi_0070_0034 = 1
 xi_0070_0035 = 0
 xi_0070_0036 = 0
 xi_0070_0037 = 0
 xi_0070_0038 = 0
 xi_0070_0039 = 0
 xi_0071_0000 = 29
 34 <= xi_0071_0001 <= 36
 3964 <= xi_0071_0002 <= 3990
 xi_0071_0003 = 3
 xi_0071_0004 = 2
 xi_0071_0005 = 1
 xi_0071_0006 = 0
 xi_0071_0007 = 0
 xi_0071_0008 = 1
 xi_0071_0009 = 1
 xi_0071_0010 = 0
 xi_0071_0011 = 1
 xi_0071_0012 = 0
 xi_0071_0013 = 0
 xi_0071_0014 = 1
 xi_0071_0015 = 0
 xi_0071_0016 = 0
 xi_0071_0017 = 0
 xi_0071_0018 = 0
 xi_0071_0019 = 0
 xi_0071_0020 = 0
 xi_0071_0021 = 0
 xi_0071_0022 = 1
 xi_0071_0023 = 0
 xi_0071_0024 = 0
 xi_0071_0025 = 0
 xi_0071_0026 <= 1
 xi_0071_0027 = 0
 xi_0071_0028 = 1
 xi_0071_0029 <= 1
 xi_0071_0030 = 0
 xi_0071_0031 = 0
 xi_0071_0032 = 1
 xi_0071_0033 = 0
 xi_0071_0034 = 1
 xi_0071_0035 = 0
 xi_0071_0036 = 0
 xi_0071_0037 = 0
 xi_0071_0038 = 0
 xi_0071_0039 = 0
 xi_0072_0000 = 23
 13 <= xi_0072_0001 <= 15
 366 <= xi_0072_0002 <= 392
 xi_0072_0003 = 4
 xi_0072_0004 = 4
 xi_0072_0005 = 1
 xi_0072_0006 = 0
 xi_0072_0007 = 1
 xi_0072_0008 = 1
 xi_0072_0009 = 0
 xi_0072_0010 = 0
 xi_0072_0011 = 0
 xi_0072_0012 = 0
 xi_0072_0013 = 0
 xi_0072_0014 = 0
 xi_0072_0015 = 1
 xi_0072_0016 = 0
 xi_0072_0017 = 1
 xi_0072_0018 = 0
 xi_0072_0019 = 1
 xi_0072_0020 = 0
 xi_0072_0021 = 0
 xi_0072_0022 = 0
 xi_0072_0023 = 0
 xi_0072_0024 = 0
 xi_0072_0025 = 0
 xi_0072_0026 <= 1
 xi_0072_0027 = 0
 xi_0072_0028 = 1
 xi_0072_0029 <= 1
 xi_0072_0030 = 0
 xi_0072_0031 = 0
 xi_0072_0032 = 0
 xi_0072_0033 = 1
 xi_0072_0034 = 1
 xi_0072_0035 = 0
 xi_0072_0036 = 0
 xi_0072_0037 = 0
 xi_0072_0038 = 0
 xi_0072_0039 = 0
 xi_0073_0000 = 65
 40 <= xi_0073_0001 <= 42
 3368 <= xi_0073_0002 <= 3394
 xi_0073_0003 = 4
 xi_0073_0004 = 4
 xi_0073_0005 = 2
 xi_0073_0006 = 0
 xi_0073_0007 = 0
 xi_0073_0008 = 1
 xi_0073_0009 = 0
 xi_0073_0010 = 1
 xi_0073_0011 = 0
 xi_0073_0012 = 1
 xi_0073_0013 = 0
 xi_0073_0014 = 1
 xi_0073_0015 = 0
 xi_0073_0016 = 1
 xi_0073_0017 = 0
 xi_0073_0018 = 0
 xi_0073_0019 = 0
 xi_0073_0020 = 0
 xi_0073_0021 = 0
 xi_0073_0022 = 0
 xi_0073_0023 = 0
 xi_0073_0024 = 0
 xi_0073_0025 = 1
 xi_0073_0026 <= 1
 xi_0073_0027 = 0
 xi_0073_0028 = 0
 xi_0073_0029 <= 1
 xi_0073_0030 = 1
 xi_0073_0031 = 1
 xi_0073_0032 = 0
 xi_0073_0033 = 0
 xi_0073_0034 = 1
 xi_0073_0035 = 0
 xi_0073_0036 = 0
 xi_0073_0037 = 0
 xi_0073_0038 = 1
 xi_0073_0039 = 1
 xi_0074_0000 = 34
 28 <= xi_0074_0001 <= 30
 11972 <= xi_0074_0002 <= 11998
 xi_0074_0003 = 1
 xi_0074_0004 = 1
 xi_0074_0005 = 1
 xi_0074_0006 = 0
 xi_0074_0007 = 1
 xi_0074_0008 = 1
 xi_0074_0009 = 0
 xi_0074_0010 = 0
 xi_0074_0011 = 0
 xi_0074_0012 = 0
 xi_0074_0013 = 0
 xi_0074_0014 = 1
 xi_0074_0015 = 0
 xi_0074_0016 = 0
 xi_0074_0017 = 0
 xi_0074_0018 = 0
 xi_0074_0019 = 0
 xi_0074_0020 = 0
 xi_0074_0021 = 0
 xi_0074_0022 = 0
 xi_0074_0023 = 0
 xi_0074_0024 = 0
 xi_0074_0025 = 1
 xi_0074_0026 <= 1
 xi_0074_0027 = 0
 xi_0074_0028 = 1
 xi_0074_0029 <= 1
 xi_0074_0030 = 0
 xi_0074_0031 = 1
 xi_0074_0032 = 0
 xi_0074_0033 = 0
 xi_0074_0034 = 1
 xi_0074_0035 = 0
 xi_0074_0036 = 0
 xi_0074_0037 = 0
 xi_0074_0038 = 0
 xi_0074_0039 = 1
 xi_0075_0000 = 42
 22 <= xi_0075_0001 <= 24
 1939 <= xi_0075_0002 <= 1965
 xi_0075_0003 = 4
 xi_0075_0004 = 4
 xi_0075_0005 = 2
 xi_0075_0006 = 0
 xi_0075_0007 = 1
 xi_0075_0008 = 0
 xi_0075_0009 = 0
 xi_0075_0010 = 0
 xi_0075_0011 = 0
 xi_0075_0012 = 0
 xi_0075_0013 = 0
 xi_0075_0014 = 0
 xi_0075_0015 = 1
 xi_0075_0016 = 0
 xi_0075_0017 = 1
 xi_0075_0018 = 0
 xi_0075_0019 = 0
 xi_0075_0020 = 0
 xi_0075_0021 = 0
 xi_0075_0022 = 0
 xi_0075_0023 = 1
 xi_0075_0024 = 0
 xi_0075_0025 = 0
 xi_0075_0026 <= 1
 xi_0075_0027 = 0
 xi_0075_0028 = 0
 xi_0075_0029 <= 1
 xi_0075_0030 = 1
 xi_0075_0031 = 0
 xi_0075_0032 = 1
 xi_0075_0033 = 0
 xi_0075_0034 = 1
 xi_0075_0035 = 0
 xi_0075_0036 = 0
 xi_0075_0037 = 0
 xi_0075_0038 = 0
 xi_0075_0039 = 0
 xi_0076_0000 = 34
 13 <= xi_0076_0001 <= 15
 6824 <= xi_0076_0002 <= 6850
 xi_0076_0003 = 1
 xi_0076_0004 = 2
 xi_0076_0005 = 1
 xi_0076_0006 = 1
 xi_0076_0007 = 1
 xi_0076_0008 = 1
 xi_0076_0009 = 1
 xi_0076_0010 = 0
 xi_0076_0011 = 0
 xi_0076_0012 = 0
 xi_0076_0013 = 0
 xi_0076_0014 = 1
 xi_0076_0015 = 0
 xi_0076_0016 = 1
 xi_0076_0017 = 1
 xi_0076_0018 = 0
 xi_0076_0019 = 0
 xi_0076_0020 = 0
 xi_0076_0021 = 0
 xi_0076_0022 = 0
 xi_0076_0023 = 1
 xi_0076_0024 = 0
 xi_0076_0025 = 0
 xi_0076_0026 <= 1
 xi_0076_0027 = 0
 xi_0076_0028 = 0
 xi_0076_0029 <= 1
 xi_0076_0030 = 1
 xi_0076_0031 = 0
 xi_0076_0032 = 1
 xi_0076_0033 = 0
 xi_0076_0034 = 0
 xi_0076_0035 = 1
 xi_0076_0036 = 0
 xi_0076_0037 = 0
 xi_0076_0038 = 1
 xi_0076_0039 = 1
 xi_0077_0000 = 32
 4 <= xi_0077_0001 <= 6
 905 <= xi_0077_0002 <= 931
 xi_0077_0003 = 1
 xi_0077_0004 = 1
 xi_0077_0005 = 1
 xi_0077_0006 = 0
 xi_0077_0007 = 0
 xi_0077_0008 = 1
 xi_0077_0009 = 1
 xi_0077_0010 = 0
 xi_0077_0011 = 0
 xi_0077_0012 = 0
 xi_0077_0013 = 0
 xi_0077_0014 = 1
 xi_0077_0015 = 0
 xi_0077_0016 = 0
 xi_0077_0017 = 0
 xi_0077_0018 = 0
 xi_0077_0019 = 0
 xi_0077_0020 = 0
 xi_0077_0021 = 0
 xi_0077_0022 = 0
 xi_0077_0023 = 1
 xi_0077_0024 = 0
 xi_0077_0025 = 0
 xi_0077_0026 <= 1
 xi_0077_0027 = 0
 xi_0077_0028 = 1
 xi_0077_0029 <= 1
 xi_0077_0030 = 0
 xi_0077_0031 = 0
 xi_0077_0032 = 1
 xi_0077_0033 = 0
 xi_0077_0034 = 0
 xi_0077_0035 = 1
 xi_0077_0036 = 0
 xi_0077_0037 = 0
 xi_0077_0038 = 0
 xi_0077_0039 = 0
 xi_0078_0000 = 31
 34 <= xi_0078_0001 <= 36
 2276 <= xi_0078_0002 <= 2302
 xi_0078_0003 = 4
 xi_0078_0004 = 4
 xi_0078_0005 = 1
 xi_0078_0006 = 0
 xi_0078_0007 = 0
 xi_0078_0008 = 1
 xi_0078_0009 = 0
 xi_0078_0010 = 0
 xi_0078_0011 = 0
 xi_0078_0012 = 0
 xi_0078_0013 = 0
 xi_0078_0014 = 0
 xi_0078_0015 = 1
 xi_0078_0016 = 0
 xi_0078_0017 = 1
 xi_0078_0018 = 0
 xi_0078_0019 = 0
 xi_0078_0020 = 1
 xi_0078_0021 = 0
 xi_0078_0022 = 0
 xi_0078_0023 = 0
 xi_0078_0024 = 0
 xi_0078_0025 = 0
 xi_0078_0026 <= 1
 xi_0078_0027 = 0
 xi_0078_0028 = 0
 xi_0078_0029 <= 1
 xi_0078_0030 = 1
 xi_0078_0031 = 1
 xi_0078_0032 = 0
 xi_0078_0033 = 0
 xi_0078_0034 = 1
 xi_0078_0035 = 0
 xi_0078_0036 = 0
 xi_0078_0037 = 0
 xi_0078_0038 = 0
 xi_0078_0039 = 1
 xi_0079_0000 = 50
 34 <= xi_0079_0001 <= 36
 2645 <= xi_0079_0002 <= 2671
 xi_0079_0003 = 4
 xi_0079_0004 = 4
 xi_0079_0005 = 1
 xi_0079_0006 = 0
 xi_0079_0007 = 0
 xi_0079_0008 = 1
 xi_0079_0009 = 0
 xi_0079_0010 = 0
 xi_0079_0011 = 0
 xi_0079_0012 = 1
 xi_0079_0013 = 0
 xi_0079_0014 = 0
 xi_0079_0015 = 0
 xi_0079_0016 = 0
 xi_0079_0017 = 1
 xi_0079_0018 = 0
 xi_0079_0019 = 0
 xi_0079_0020 = 1
 xi_0079_0021 = 0
 xi_0079_0022 = 0
 xi_0079_0023 = 0
 xi_0079_0024 = 0
 xi_0079_0025 = 0
 xi_0079_0026 <= 1
 xi_0079_0027 = 0
 xi_0079_0028 = 0
 xi_0079_0029 <= 1
 xi_0079_0030 = 1
 xi_0079_0031 = 0
 xi_0079_0032 = 1
 xi_0079_0033 = 0
 xi_0079_0034 = 0
 xi_0079_0035 = 1
 xi_0079_0036 = 0
 xi_0079_0037 = 0
 xi_0079_0038 = 0
 xi_0079_0039 = 0
 xi_0080_0000 = 40
 19 <= xi_0080_0001 <= 21
 1621 <= xi_0080_0002 <= 1647
 xi_0080_0003 = 4
 xi_0080_0004 = 2
 xi_0080_0005 = 2
 xi_0080_0006 = 1
 xi_0080_0007 = 0
 xi_0080_0008 = 1
 xi_0080_0009 = 1
 xi_0080_0010 = 0
 xi_0080_0011 = 0
 xi_0080_0012 = 0
 xi_0080_0013 = 0
 xi_0080_0014 = 1
 xi_0080_0015 = 0
 xi_0080_0016 = 0
 xi_0080_0017 = 0
 xi_0080_0018 = 0
 xi_0080_0019 = 0
 xi_0080_0020 = 0
 xi_0080_0021 = 0
 xi_0080_0022 = 0
 xi_0080_0023 = 1
 xi_0080_0024 = 0
 xi_0080_0025 = 0
 xi_0080_0026 <= 1
 xi_0080_0027 = 0
 xi_0080_0028 = 0
 xi_0080_0029 <= 1
 xi_0080_0030 = 1
 xi_0080_0031 = 1
 xi_0080_0032 = 0
 xi_0080_0033 = 0
 xi_0080_0034 = 1
 xi_0080_0035 = 0
 xi_0080_0036 = 0
 xi_0080_0037 = 0
 xi_0080_0038 = 1
 xi_0080_0039 = 1
 xi_0081_0000 = 24
 46 <= xi_0081_0001 <= 48
 4282 <= xi_0081_0002 <= 4308
 xi_0081_0003 = 3
 xi_0081_0004 = 4
 xi_0081_0005 = 1
 xi_0081_0006 = 0
 xi_0081_0007 = 0
 xi_0081_0008 = 1
 xi_0081_0009 = 0
 xi_0081_0010 = 0
 xi_0081_0011 = 0
 xi_0081_0012 = 0
 xi_0081_0013 = 0
 xi_0081_0014 = 0
 xi_0081_0015 = 1
 xi_0081_0016 = 0
 xi_0081_0017 = 1
 xi_0081_0018 = 1
 xi_0081_0019 = 0
 xi_0081_0020 = 0
 xi_0081_0021 = 0
 xi_0081_0022 = 0
 xi_0081_0023 = 0
 xi_0081_0024 = 0
 xi_0081_0025 = 0
 xi_0081_0026 <= 1
 xi_0081_0027 = 0
 xi_0081_0028 = 1
 xi_0081_0029 <= 1
 xi_0081_0030 = 0
 xi_0081_0031 = 1
 xi_0081_0032 = 0
 xi_0081_0033 = 0
 xi_0081_0034 = 1
 xi_0081_0035 = 0
 xi_0081_0036 = 0
 xi_0081_0037 = 0
 xi_0081_0038 = 0
 xi_0081_0039 = 0
 xi_0082_0000 = 26
 28 <= xi_0082_0001 <= 30
 4254 <= xi_0082_0002 <= 4280
 xi_0082_0003 = 4
 xi_0082_0004 = 4
 xi_0082_0005 = 2
 xi_0082_0006 = 0
 xi_0082_0007 = 0
 xi_0082_0008 = 1
 xi_0082_0009 = 0
 xi_0082_0010 = 0
 xi_0082_0011 = 0
 xi_0082_0012 = 0
 xi_0082_0013 = 0
 xi_0082_0014 = 0
 xi_0082_0015 = 1
 xi_0082_0016 = 0
 xi_0082_0017 = 0
 xi_0082_0018 = 1
 xi_0082_0019 = 0
 xi_0082_0020 = 0
 xi_0082_0021 = 0
 xi_0082_0022 = 0
 xi_0082_0023 = 0
 xi_0082_0024 = 0
 xi_0082_0025 = 0
 xi_0082_0026 <= 1
 xi_0082_0027 = 0
 xi_0082_0028 = 0
 xi_0082_0029 <= 1
 xi_0082_0030 = 1
 xi_0082_0031 = 0
 xi_0082_0032 = 1
 xi_0082_0033 = 0
 xi_0082_0034 = 0
 xi_0082_0035 = 1
 xi_0082_0036 = 0
 xi_0082_0037 = 0
 xi_0082_0038 = 0
 xi_0082_0039 = 0
 xi_0083_0000 = 36
 34 <= xi_0083_0001 <= 36
 3053 <= xi_0083_0002 <= 3079
 xi_0083_0003 = 4
 xi_0083_0004 = 4
 xi_0083_0005 = 1
 xi_0083_0006 = 0
 xi_0083_0007 = 0
 xi_0083_0008 = 1
 xi_0083_0009 = 0
 xi_0083_0010 = 0
 xi_0083_0011 = 0
 xi_0083_0012 = 0
 xi_0083_0013 = 0
 xi_0083_0014 = 1
 xi_0083_0015 = 0
 xi_0083_0016 = 0
 xi_0083_0017 = 1
 xi_0083_0018 = 0
 xi_0083_0019 = 0
 xi_0083_0020 = 0
 xi_0083_0021 = 0
 xi_0083_0022 = 0
 xi_0083_0023 = 1
 xi_0083_0024 = 0
 xi_0083_0025 = 0
 xi_0083_0026 <= 1
 xi_0083_0027 = 0
 xi_0083_0028 = 0
 xi_0083_0029 <= 1
 xi_0083_0030 = 1
 xi_0083_0031 = 1
 xi_0083_0032 = 0
 xi_0083_0033 = 0
 xi_0083_0034 = 1
 xi_0083_0035 = 0
 xi_0083_0036 = 0
 xi_0083_0037 = 0
 xi_0083_0038 = 1
 xi_0083_0039 = 1
 xi_0084_0000 = 27
 10 <= xi_0084_0001 <= 12
 925 <= xi_0084_0002 <= 951
 xi_0084_0003 = 4
 xi_0084_0004 = 4
 xi_0084_0005 = 4
 xi_0084_0006 = 0
 xi_0084_0007 = 0
 xi_0084_0008 = 1
 xi_0084_0009 = 0
 xi_0084_0010 = 0
 xi_0084_0011 = 1
 xi_0084_0012 = 0
 xi_0084_0013 = 0
 xi_0084_0014 = 0
 xi_0084_0015 = 1
 xi_0084_0016 = 0
 xi_0084_0017 = 1
 xi_0084_0018 = 0
 xi_0084_0019 = 0
 xi_0084_0020 = 0
 xi_0084_0021 = 1
 xi_0084_0022 = 0
 xi_0084_0023 = 0
 xi_0084_0024 = 0
 xi_0084_0025 = 0
 xi_0084_0026 <= 1
 xi_0084_0027 = 0
 xi_0084_0028 = 1
 xi_0084_0029 <= 1
 xi_0084_0030 = 0
 xi_0084_0031 = 0
 xi_0084_0032 = 1
 xi_0084_0033 = 0
 xi_0084_0034 = 0
 xi_0084_0035 = 1
 xi_0084_0036 = 0
 xi_0084_0037 = 0
 xi_0084_0038 = 0
 xi_0084_0039 = 0
 xi_0085_0000 = 58
 52 <= xi_0085_0001 <= 54
 15919 <= xi_0085_0002 <= 15945
 xi_0085_0003 = 3
 xi_0085_0004 = 4
 xi_0085_0005 = 1
 xi_0085_0006 = 0
 xi_0085_0007 = 1
 xi_0085_0008 = 1
 xi_0085_0009 = 0
 xi_0085_0010 = 0
 xi_0085_0011 = 0
 xi_0085_0012 = 0
 xi_0085_0013 = 0
 xi_0085_0014 = 0
 xi_0085_0015 = 1
 xi_0085_0016 = 0
 xi_0085_0017 = 1
 xi_0085_0018 = 1
 xi_0085_0019 = 0
 xi_0085_0020 = 0
 xi_0085_0021 = 0
 xi_0085_0022 = 0
 xi_0085_0023 = 0
 xi_0085_0024 = 0
 xi_0085_0025 = 0
 xi_0085_0026 <= 1
 xi_0085_0027 = 0
 xi_0085_0028 = 1
 xi_0085_0029 <= 1
 xi_0085_0030 = 0
 xi_0085_0031 = 0
 xi_0085_0032 = 1
 xi_0085_0033 = 0
 xi_0085_0034 = 1
 xi_0085_0035 = 0
 xi_0085_0036 = 0
 xi_0085_0037 = 0
 xi_0085_0038 = 1
 xi_0085_0039 = 1
 xi_0086_0000 = 68
 16 <= xi_0086_0001 <= 18
 6735 <= xi_0086_0002 <= 6761
 xi_0086_0003 = 2
 xi_0086_0004 = 4
 xi_0086_0005 = 2
 xi_0086_0006 = 0
 xi_0086_0007 = 0
 xi_0086_0008 = 1
 xi_0086_0009 = 0
 xi_0086_0010 = 0
 xi_0086_0011 = 0
 xi_0086_0012 = 0
 xi_0086_0013 = 0
 xi_0086_0014 = 0
 xi_0086_0015 = 1
 xi_0086_0016 = 0
 xi_0086_0017 = 1
 xi_0086_0018 = 0
 xi_0086_0019 = 0
 xi_0086_0020 = 0
 xi_0086_0021 = 0
 xi_0086_0022 = 0
 xi_0086_0023 = 1
 xi_0086_0024 = 0
 xi_0086_0025 = 0
 xi_0086_0026 <= 1
 xi_0086_0027 = 0
 xi_0086_0028 = 0
 xi_0086_0029 <= 1
 xi_0086_0030 = 1
 xi_0086_0031 = 1
 xi_0086_0032 = 0
 xi_0086_0033 = 0
 xi_0086_0034 = 1
 xi_0086_0035 = 0
 xi_0086_0036 = 0
 xi_0086_0037 = 0
 xi_0086_0038 = 1
 xi_0086_0039 = 1
 xi_0087_0000 = 28
 34 <= xi_0087_0001 <= 36
 9546 <= xi_0087_0002 <= 9572
 xi_0087_0003 = 1
 xi_0087_0004 = 1
 xi_0087_0005 = 2
 xi_0087_0006 = 0
 xi_0087_0007 = 0
 xi_0087_0008 = 0
 xi_0087_0009 = 0
 xi_0087_0010 = 0
 xi_0087_0011 = 0
 xi_0087_0012 = 0
 xi_0087_0013 = 0
 xi_0087_0014 = 1
 xi_0087_0015 = 0
 xi_0087_0016 = 0
 xi_0087_0017 = 1
 xi_0087_0018 = 1
 xi_0087_0019 = 0
 xi_0087_0020 = 0
 xi_0087_0021 = 0
 xi_0087_0022 = 0
 xi_0087_0023 = 0
 xi_0087_0024 = 0
 xi_0087_0025 = 0
 xi_0087_0026 <= 1
 xi_0087_0027 = 0
 xi_0087_0028 = 1
 xi_0087_0029 <= 1
 xi_0087_0030 = 0
 xi_0087_0031 = 1
 xi_0087_0032 = 0
 xi_0087_0033 = 0
 xi_0087_0034 = 1
 xi_0087_0035 = 0
 xi_0087_0036 = 0
 xi_0087_0037 = 0
 xi_0087_0038 = 0
 xi_0087_0039 = 1
 xi_0088_0000 = 29
 34 <= xi_0088_0001 <= 36
 6861 <= xi_0088_0002 <= 6887
 xi_0088_0003 = 4
 xi_0088_0004 = 3
 xi_0088_0005 = 1
 xi_0088_0006 = 0
 xi_0088_0007 = 1
 xi_0088_0008 = 0
 xi_0088_0009 = 0
 xi_0088_0010 = 0
 xi_0088_0011 = 0
 xi_0088_0012 = 0
 xi_0088_0013 = 0
 xi_0088_0014 = 1
 xi_0088_0015 = 0
 xi_0088_0016 = 0
 xi_0088_0017 = 1
 xi_0088_0018 = 0
 xi_0088_0019 = 1
 xi_0088_0020 = 0
 xi_0088_0021 = 0
 xi_0088_0022 = 0
 xi_0088_0023 = 0
 xi_0088_0024 = 0
 xi_0088_0025 = 0
 xi_0088_0026 <= 1
 xi_0088_0027 = 0
 xi_0088_0028 = 0
 xi_0088_0029 <= 1
 xi_0088_0030 = 1
 xi_0088_0031 = 1
 xi_0088_0032 = 0
 xi_0088_0033 = 0
 xi_0088_0034 = 1
 xi_0088_0035 = 0
 xi_0088_0036 = 0
 xi_0088_0037 = 0
 xi_0088_0038 = 1
 xi_0088_0039 = 1
 xi_0089_0000 = 19
 7 <= xi_0089_0001 <= 9
 1954 <= xi_0089_0002 <= 1980
 xi_0089_0003 = 2
 xi_0089_0004 = 2
 xi_0089_0005 = 2
 xi_0089_0006 = 0
 xi_0089_0007 = 0
 xi_0089_0008 = 1
 xi_0089_0009 = 0
 xi_0089_0010 = 0
 xi_0089_0011 = 0
 xi_0089_0012 = 1
 xi_0089_0013 = 0
 xi_0089_0014 = 0
 xi_0089_0015 = 1
 xi_0089_0016 = 0
 xi_0089_0017 = 1
 xi_0089_0018 = 0
 xi_0089_0019 = 0
 xi_0089_0020 = 0
 xi_0089_0021 = 1
 xi_0089_0022 = 0
 xi_0089_0023 = 0
 xi_0089_0024 = 0
 xi_0089_0025 = 0
 xi_0089_0026 <= 1
 xi_0089_0027 = 0
 xi_0089_0028 = 1
 xi_0089_0029 <= 1
 xi_0089_0030 = 0
 xi_0089_0031 = 1
 xi_0089_0032 = 0
 xi_0089_0033 = 0
 xi_0089_0034 = 1
 xi_0089_0035 = 0
 xi_0089_0036 = 0
 xi_0089_0037 = 0
 xi_0089_0038 = 0
 xi_0089_0039 = 0
 xi_0090_0000 = 29
 10 <= xi_0090_0001 <= 12
 2123 <= xi_0090_0002 <= 2149
 xi_0090_0003 = 4
 xi_0090_0004 = 1
 xi_0090_0005 = 1
 xi_0090_0006 = 0
 xi_0090_0007 = 0
 xi_0090_0008 = 1
 xi_0090_0009 = 1
 xi_0090_0010 = 0
 xi_0090_0011 = 0
 xi_0090_0012 = 0
 xi_0090_0013 = 0
 xi_0090_0014 = 0
 xi_0090_0015 = 0
 xi_0090_0016 = 0
 xi_0090_0017 = 1
 xi_0090_0018 = 0
 xi_0090_0019 = 0
 xi_0090_0020 = 1
 xi_0090_0021 = 0
 xi_0090_0022 = 0
 xi_0090_0023 = 0
 xi_0090_0024 = 0
 xi_0090_0025 = 0
 xi_0090_0026 <= 1
 xi_0090_0027 = 0
 xi_0090_0028 = 0
 xi_0090_0029 <= 1
 xi_0090_0030 = 1
 xi_0090_0031 = 1
 xi_0090_0032 = 0
 xi_0090_0033 = 0
 xi_0090_0034 = 1
 xi_0090_0035 = 0
 xi_0090_0036 = 0
 xi_0090_0037 = 0
 xi_0090_0038 = 0
 xi_0090_0039 = 1
 xi_0091_0000 = 29
 22 <= xi_0091_0001 <= 24
 11302 <= xi_0091_0002 <= 11328
 xi_0091_0003 = 2
 xi_0091_0004 = 3
 xi_0091_0005 = 2
 xi_0091_0006 = 0
 xi_0091_0007 = 1
 xi_0091_0008 = 1
 xi_0091_0009 = 0
 xi_0091_0010 = 0
 xi_0091_0011 = 1
 xi_0091_0012 = 1
 xi_0091_0013 = 0
 xi_0091_0014 = 1
 xi_0091_0015 = 0
 xi_0091_0016 = 0
 xi_0091_0017 = 1
 xi_0091_0018 = 0
 xi_0091_0019 = 0
 xi_0091_0020 = 0
 xi_0091_0021 = 0
 xi_0091_0022 = 0
 xi_0091_0023 = 0
 xi_0091_0024 = 1
 xi_0091_0025 = 0
 xi_0091_0026 <= 1
 xi_0091_0027 = 0
 xi_0091_0028 = 0
 xi_0091_0029 <= 1
 xi_0091_0030 = 1
 xi_0091_0031 = 0
 xi_0091_0032 = 1
 xi_0091_0033 = 0
 xi_0091_0034 = 1
 xi_0091_0035 = 0
 xi_0091_0036 = 0
 xi_0091_0037 = 0
 xi_0091_0038 = 1
 xi_0091_0039 = 1
 xi_0092_0000 = 28
 22 <= xi_0092_0001 <= 24
 1223 <= xi_0092_0002 <= 1249
 xi_0092_0003 = 4
 xi_0092_0004 = 2
 xi_0092_0005 = 1
 xi_0092_0006 = 0
 xi_0092_0007 = 0
 xi_0092_0008 = 1
 xi_0092_0009 = 0
 xi_0092_0010 = 0
 xi_0092_0011 = 0
 xi_0092_0012 = 0
 xi_0092_0013 = 0
 xi_0092_0014 = 1
 xi_0092_0015 = 0
 xi_0092_0016 = 0
 xi_0092_0017 = 1
 xi_0092_0018 = 0
 xi_0092_0019 = 0
 xi_0092_0020 = 0
 xi_0092_0021 = 0
 xi_0092_0022 = 0
 xi_0092_0023 = 1
 xi_0092_0024 = 0
 xi_0092_0025 = 0
 xi_0092_0026 <= 1
 xi_0092_0027 = 0
 xi_0092_0028 = 1
 xi_0092_0029 <= 1
 xi_0092_0030 = 0
 xi_0092_0031 = 1
 xi_0092_0032 = 0
 xi_0092_0033 = 0
 xi_0092_0034 = 1
 xi_0092_0035 = 0
 xi_0092_0036 = 0
 xi_0092_0037 = 0
 xi_0092_0038 = 0
 xi_0092_0039 = 1
 xi_0093_0000 = 24
 70 <= xi_0093_0001 <= 72
 5569 <= xi_0093_0002 <= 5595
 xi_0093_0003 = 2
 xi_0093_0004 = 2
 xi_0093_0005 = 1
 xi_0093_0006 = 0
 xi_0093_0007 = 0
 xi_0093_0008 = 1
 xi_0093_0009 = 0
 xi_0093_0010 = 0
 xi_0093_0011 = 0
 xi_0093_0012 = 0
 xi_0093_0013 = 0
 xi_0093_0014 = 1
 xi_0093_0015 = 0
 xi_0093_0016 = 0
 xi_0093_0017 = 1
 xi_0093_0018 = 0
 xi_0093_0019 = 0
 xi_0093_0020 = 1
 xi_0093_0021 = 0
 xi_0093_0022 = 0
 xi_0093_0023 = 0
 xi_0093_0024 = 0
 xi_0093_0025 = 0
 xi_0093_0026 <= 1
 xi_0093_0027 = 0
 xi_0093_0028 = 0
 xi_0093_0029 <= 1
 xi_0093_0030 = 1
 xi_0093_0031 = 0
 xi_0093_0032 = 1
 xi_0093_0033 = 0
 xi_0093_0034 = 0
 xi_0093_0035 = 1
 xi_0093_0036 = 0
 xi_0093_0037 = 0
 xi_0093_0038 = 0
 xi_0093_0039 = 1
 xi_0094_0000 = 47
 34 <= xi_0094_0001 <= 36
 12586 <= xi_0094_0002 <= 12612
 xi_0094_0003 = 1
 xi_0094_0004 = 4
 xi_0094_0005 = 1
 xi_0094_0006 = 1
 xi_0094_0007 = 1
 xi_0094_0008 = 1
 xi_0094_0009 = 0
 xi_0094_0010 = 0
 xi_0094_0011 = 0
 xi_0094_0012 = 0
 xi_0094_0013 = 0
 xi_0094_0014 = 0
 xi_0094_0015 = 0
 xi_0094_0016 = 0
 xi_0094_0017 = 1
 xi_0094_0018 = 0
 xi_0094_0019 = 1
 xi_0094_0020 = 0
 xi_0094_0021 = 0
 xi_0094_0022 = 0
 xi_0094_0023 = 0
 xi_0094_0024 = 0
 xi_0094_0025 = 0
 xi_0094_0026 <= 1
 xi_0094_0027 = 0
 xi_0094_0028 = 0
 xi_0094_0029 <= 1
 xi_0094_0030 = 1
 xi_0094_0031 = 0
 xi_0094_0032 = 1
 xi_0094_0033 = 0
 xi_0094_0034 = 0
 xi_0094_0035 = 1
 xi_0094_0036 = 0
 xi_0094_0037 = 0
 xi_0094_0038 = 1
 xi_0094_0039 = 1
 xi_0095_0000 = 24
 10 <= xi_0095_0001 <= 12
 7446 <= xi_0095_0002 <= 7472
 xi_0095_0003 = 1
 xi_0095_0004 = 2
 xi_0095_0005 = 1
 xi_0095_0006 = 0
 xi_0095_0007 = 0
 xi_0095_0008 = 1
 xi_0095_0009 = 0
 xi_0095_0010 = 0
 xi_0095_0011 = 0
 xi_0095_0012 = 0
 xi_0095_0013 = 0
 xi_0095_0014 = 0
 xi_0095_0015 = 1
 xi_0095_0016 = 1
 xi_0095_0017 = 0
 xi_0095_0018 = 0
 xi_0095_0019 = 0
 xi_0095_0020 = 0
 xi_0095_0021 = 0
 xi_0095_0022 = 0
 xi_0095_0023 = 1
 xi_0095_0024 = 0
 xi_0095_0025 = 0
 xi_0095_0026 <= 1
 xi_0095_0027 = 0
 xi_0095_0028 = 0
 xi_0095_0029 <= 1
 xi_0095_0030 = 1
 xi_0095_0031 = 0
 xi_0095_0032 = 1
 xi_0095_0033 = 0
 xi_0095_0034 = 1
 xi_0095_0035 = 0
 xi_0095_0036 = 0
 xi_0095_0037 = 0
 xi_0095_0038 = 0
 xi_0095_0039 = 0
 xi_0096_0000 = 28
 28 <= xi_0096_0001 <= 30
 5208 <= xi_0096_0002 <= 5234
 xi_0096_0003 = 4
 xi_0096_0004 = 2
 xi_0096_0005 = 2
 xi_0096_0006 = 0
 xi_0096_0007 = 0
 xi_0096_0008 = 1
 xi_0096_0009 = 0
 xi_0096_0010 = 1
 xi_0096_0011 = 0
 xi_0096_0012 = 0
 xi_0096_0013 = 0
 xi_0096_0014 = 1
 xi_0096_0015 = 0
 xi_0096_0016 = 1
 xi_0096_0017 = 1
 xi_0096_0018 = 0
 xi_0096_0019 = 0
 xi_0096_0020 = 0
 xi_0096_0021 = 0
 xi_0096_0022 = 0
 xi_0096_0023 = 1
 xi_0096_0024 = 0
 xi_0096_0025 = 0
 xi_0096_0026 <= 1
 xi_0096_0027 = 0
 xi_0096_0028 = 0
 xi_0096_0029 <= 1
 xi_0096_0030 = 1
 xi_0096_0031 = 0
 xi_0096_0032 = 1
 xi_0096_0033 = 0
 xi_0096_0034 = 1
 xi_0096_0035 = 0
 xi_0096_0036 = 0
 xi_0096_0037 = 0
 xi_0096_0038 = 0
 xi_0096_0039 = 1
 xi_0097_0000 = 25
 10 <= xi_0097_0001 <= 12
 2943 <= xi_0097_0002 <= 2969
 xi_0097_0003 = 4
 xi_0097_0004 = 3
 xi_0097_0005 = 2
 xi_0097_0006 = 0
 xi_0097_0007 = 0
 xi_0097_0008 = 1
 xi_0097_0009 = 0
 xi_0097_0010 = 0
 xi_0097_0011 = 0
 xi_0097_0012 = 0
 xi_0097_0013 = 0
 xi_0097_0014 = 0
 xi_0097_0015 = 1
 xi_0097_0016 = 0
 xi_0097_0017 = 1
 xi_0097_0018 = 0
 xi_0097_0019 = 0
 xi_0097_0020 = 0
 xi_0097_0021 = 1
 xi_0097_0022 = 0
 xi_0097_0023 = 0
 xi_0097_0024 = 0
 xi_0097_0025 = 0
 xi_0097_0026 <= 1
 xi_0097_0027 = 0
 xi_0097_0028 = 1
 xi_0097_0029 <= 1
 xi_0097_0030 = 0
 xi_0097_0031 = 0
 xi_0097_0032 = 1
 xi_0097_0033 = 0
 xi_0097_0034 = 1
 xi_0097_0035 = 0
 xi_0097_0036 = 0
 xi_0097_0037 = 0
 xi_0097_0038 = 0
 xi_0097_0039 = 0
Binaries
omg_0000
omg_0001
omg_0002
omg_0003
omg_0004
omg_0005
omg_0006
omg_0007
omg_0008
omg_0009
omg_0010
omg_0011
omg_0012
omg_0013
omg_0014
omg_0015
omg_0016
omg_0017
omg_0018
omg_0019
omg_0020
omg_0021
omg_0022
omg_0023
omg_0024
omg_0025
omg_0026
omg_0027
omg_0028
omg_0029
omg_0030
omg_0031
omg_0032
omg_0033
omg_0034
omg_0035
omg_0036
omg_0037
omg_0038
omg_0039
omg_0040
omg_0041
omg_0042
omg_0043
omg_0044
omg_0045
omg_0046
omg_0047
omg_0048
omg_0049
omg_0050
omg_0051
omg_0052
omg_0053
omg_0054
omg_0055
omg_0056
omg_0057
omg_0058
omg_0059
omg_0060
omg_0061
omg_0062
omg_0063
omg_0064
omg_0065
omg_0066
omg_0067
omg_0068
omg_0069
omg_0070
omg_0071
omg_0072
omg_0073
omg_0074
omg_0075
omg_0076
omg_0077
omg_0078
omg_0079
omg_0080
omg_0081
omg_0082
omg_0083
omg_0084
omg_0085
omg_0086
omg_0087
omg_0088
omg_0089
omg_0090
omg_0091
omg_0092
omg_0093
omg_0094
omg_0095
omg_0096
omg_0097
pi_0000_0000
pi_0001_0000
pi_0001_0001
pi_0001_0002
pi_0002_0000
pi_0002_0001
pi_0002_0002
pi_0002_0003
pi_0002_0004
pi_0002_0005
pi_0002_0006
pi_0002_0007
pi_0002_0008
pi_0002_0009
pi_0002_0010
pi_0002_0011
pi_0002_0012
pi_0002_0013
pi_0002_0014
pi_0002_0015
pi_0002_0016
pi_0002_0017
pi_0002_0018
pi_0002_0019
pi_0002_0020
pi_0002_0021
pi_0002_0022
pi_0002_0023
pi_0002_0024
pi_0002_0025
pi_0002_0026
pi_0003_0000
pi_0004_0000
pi_0005_0000
pi_0006_0000
pi_0007_0000
pi_0008_0000
pi_0009_0000
pi_0010_0000
pi_0011_0000
pi_0012_0000
pi_0013_0000
pi_0014_0000
pi_0015_0000
pi_0016_0000
pi_0017_0000
pi_0018_0000
pi_0019_0000
pi_0020_0000
pi_0021_0000
pi_0022_0000
pi_0023_0000
pi_0024_0000
pi_0025_0000
pi_0026_0000
pi_0026_0001
pi_0027_0000
pi_0028_0000
pi_0029_0000
pi_0029_0001
pi_0030_0000
pi_0031_0000
pi_0032_0000
pi_0033_0000
pi_0034_0000
pi_0035_0000
pi_0036_0000
pi_0037_0000
pi_0038_0000
pi_0039_0000
End
